50% Ag Cu(111) slab                     
   1.0000000000000000     
    10.2813325984523996    0.0000000000000000    0.0000000000000000
     5.1406662992261998    8.9038952150168509    0.0000000000000000
     0.0000000000000000    0.0000000000000000   36.2960046855128695
   Ag   Cu
     8    56
Selective dynamics
Direct
     0.4943371038131232    0.2613257923737535    0.5906293042978916   T   T   T
     0.9943371038131232    0.2613257923737535    0.5906293042978916   T   T   T
     0.2443371038131232    0.2613257923737535    0.5906293042978916   T   T   T
     0.7443371038131232    0.2613257923737535    0.5906293042978916   T   T   T
     0.0062234875196125    0.9875530249607820    0.5907182479617106   T   T   T
     0.2562234875196125    0.9875530249607820    0.5907182479617106   T   T   T
     0.5062234875196125    0.9875530249607820    0.5907182479617106   T   T   T
     0.7562234875196125    0.9875530249607820    0.5907182479617106   T   T   T
     0.6663437752654744    0.6673124494690370    0.5250921985857744   T   T   T
     0.4163437752654744    0.6673124494690370    0.5250921985857744   T   T   T
     0.1663437752654744    0.6673124494690370    0.5250921985857744   T   T   T
     0.9163437752654744    0.6673124494690370    0.5250921985857744   T   T   T
     0.0000000000000000    0.0000000000000000    0.4132686263947676   F   F   F
     0.6673608377682925    0.4152783244634151    0.5260991564225819   T   T   T
     0.4173608377682925    0.4152783244634151    0.5260991564225819   T   T   T
     0.1673608377682925    0.4152783244634151    0.5260991564225819   T   T   T
     0.9173608377682925    0.4152783244634151    0.5260991564225819   T   T   T
     0.6671931729034881    0.1656136541930024    0.5273194917458994   T   T   T
     0.4171931729034881    0.1656136541930024    0.5273194917458994   T   T   T
     0.9162096646556819    0.9175806706886362    0.5264980960238290   T   T   T
     0.1662096646556819    0.9175806706886362    0.5264980960238290   T   T   T
     0.6662096646556819    0.9175806706886362    0.5264980960238290   T   T   T
     0.1671931729034881    0.1656136541930024    0.5273194917458994   T   T   T
     0.9950367317442357    0.5099265365115144    0.5811128443326865   T   T   T
     0.2450367317442357    0.5099265365115144    0.5811128443326865   T   T   T
     0.4950367317442357    0.5099265365115144    0.5811128443326865   T   T   T
     0.7450367317442357    0.5099265365115144    0.5811128443326865   T   T   T
     0.0054183853008496    0.7391632293983008    0.5809456676268994   T   T   T
     0.2554183853008496    0.7391632293983008    0.5809456676268994   T   T   T
     0.4162096646556819    0.9175806706886362    0.5264980960238290   T   T   T
     0.9171931729034881    0.1656136541930024    0.5273194917458994   T   T   T
     0.8333333333333357    0.8333333333333357    0.4710895421315868   F   F   F
     0.5833333333333357    0.8333333333333357    0.4710895421315868   F   F   F
     0.2500000000000000    0.0000000000000000    0.4132686263947676   F   F   F
     0.5000000000000000    0.0000000000000000    0.4132686263947676   F   F   F
     0.7500000000000000    0.0000000000000000    0.4132686263947676   F   F   F
     0.0000000000000000    0.2500000000000000    0.4132686263947676   F   F   F
     0.2500000000000000    0.2500000000000000    0.4132686263947676   F   F   F
     0.5000000000000000    0.2500000000000000    0.4132686263947676   F   F   F
     0.7500000000000000    0.2500000000000000    0.4132686263947676   F   F   F
     0.0000000000000000    0.5000000000000000    0.4132686263947676   F   F   F
     0.2500000000000000    0.5000000000000000    0.4132686263947676   F   F   F
     0.5000000000000000    0.5000000000000000    0.4132686263947676   F   F   F
     0.7500000000000000    0.5000000000000000    0.4132686263947676   F   F   F
     0.0000000000000000    0.7500000000000000    0.4132686263947676   F   F   F
     0.2500000000000000    0.7500000000000000    0.4132686263947676   F   F   F
     0.5000000000000000    0.7500000000000000    0.4132686263947676   F   F   F
     0.7500000000000000    0.7500000000000000    0.4132686263947676   F   F   F
     0.0833333333333357    0.0833333333333357    0.4710895421315868   F   F   F
     0.3333333333333357    0.0833333333333357    0.4710895421315868   F   F   F
     0.5833333333333357    0.0833333333333357    0.4710895421315868   F   F   F
     0.8333333333333357    0.0833333333333357    0.4710895421315868   F   F   F
     0.0833333333333357    0.3333333333333357    0.4710895421315868   F   F   F
     0.3333333333333357    0.3333333333333357    0.4710895421315868   F   F   F
     0.5833333333333357    0.3333333333333357    0.4710895421315868   F   F   F
     0.8333333333333357    0.3333333333333357    0.4710895421315868   F   F   F
     0.0833333333333357    0.5833333333333357    0.4710895421315868   F   F   F
     0.3333333333333357    0.5833333333333357    0.4710895421315868   F   F   F
     0.5833333333333357    0.5833333333333357    0.4710895421315868   F   F   F
     0.8333333333333357    0.5833333333333357    0.4710895421315868   F   F   F
     0.0833333333333357    0.8333333333333357    0.4710895421315868   F   F   F
     0.3333333333333357    0.8333333333333357    0.4710895421315868   F   F   F
     0.5054183853008496    0.7391632293983008    0.5809456676268994   T   T   T
     0.7554183853008496    0.7391632293983008    0.5809456676268994   T   T   T

  0.00000000E+00  0.00000000E+00  0.00000000E+00
  0.00000000E+00  0.00000000E+00  0.00000000E+00
  0.00000000E+00  0.00000000E+00  0.00000000E+00
  0.00000000E+00  0.00000000E+00  0.00000000E+00
  0.00000000E+00  0.00000000E+00  0.00000000E+00
  0.00000000E+00  0.00000000E+00  0.00000000E+00
  0.00000000E+00  0.00000000E+00  0.00000000E+00
  0.00000000E+00  0.00000000E+00  0.00000000E+00
  0.00000000E+00  0.00000000E+00  0.00000000E+00
  0.00000000E+00  0.00000000E+00  0.00000000E+00
  0.00000000E+00  0.00000000E+00  0.00000000E+00
  0.00000000E+00  0.00000000E+00  0.00000000E+00
  0.00000000E+00  0.00000000E+00  0.00000000E+00
  0.00000000E+00  0.00000000E+00  0.00000000E+00
  0.00000000E+00  0.00000000E+00  0.00000000E+00
  0.00000000E+00  0.00000000E+00  0.00000000E+00
  0.00000000E+00  0.00000000E+00  0.00000000E+00
  0.00000000E+00  0.00000000E+00  0.00000000E+00
  0.00000000E+00  0.00000000E+00  0.00000000E+00
  0.00000000E+00  0.00000000E+00  0.00000000E+00
  0.00000000E+00  0.00000000E+00  0.00000000E+00
  0.00000000E+00  0.00000000E+00  0.00000000E+00
  0.00000000E+00  0.00000000E+00  0.00000000E+00
  0.00000000E+00  0.00000000E+00  0.00000000E+00
  0.00000000E+00  0.00000000E+00  0.00000000E+00
  0.00000000E+00  0.00000000E+00  0.00000000E+00
  0.00000000E+00  0.00000000E+00  0.00000000E+00
  0.00000000E+00  0.00000000E+00  0.00000000E+00
  0.00000000E+00  0.00000000E+00  0.00000000E+00
  0.00000000E+00  0.00000000E+00  0.00000000E+00
  0.00000000E+00  0.00000000E+00  0.00000000E+00
  0.00000000E+00  0.00000000E+00  0.00000000E+00
  0.00000000E+00  0.00000000E+00  0.00000000E+00
  0.00000000E+00  0.00000000E+00  0.00000000E+00
  0.00000000E+00  0.00000000E+00  0.00000000E+00
  0.00000000E+00  0.00000000E+00  0.00000000E+00
  0.00000000E+00  0.00000000E+00  0.00000000E+00
  0.00000000E+00  0.00000000E+00  0.00000000E+00
  0.00000000E+00  0.00000000E+00  0.00000000E+00
  0.00000000E+00  0.00000000E+00  0.00000000E+00
  0.00000000E+00  0.00000000E+00  0.00000000E+00
  0.00000000E+00  0.00000000E+00  0.00000000E+00
  0.00000000E+00  0.00000000E+00  0.00000000E+00
  0.00000000E+00  0.00000000E+00  0.00000000E+00
  0.00000000E+00  0.00000000E+00  0.00000000E+00
  0.00000000E+00  0.00000000E+00  0.00000000E+00
  0.00000000E+00  0.00000000E+00  0.00000000E+00
  0.00000000E+00  0.00000000E+00  0.00000000E+00
  0.00000000E+00  0.00000000E+00  0.00000000E+00
  0.00000000E+00  0.00000000E+00  0.00000000E+00
  0.00000000E+00  0.00000000E+00  0.00000000E+00
  0.00000000E+00  0.00000000E+00  0.00000000E+00
  0.00000000E+00  0.00000000E+00  0.00000000E+00
  0.00000000E+00  0.00000000E+00  0.00000000E+00
  0.00000000E+00  0.00000000E+00  0.00000000E+00
  0.00000000E+00  0.00000000E+00  0.00000000E+00
  0.00000000E+00  0.00000000E+00  0.00000000E+00
  0.00000000E+00  0.00000000E+00  0.00000000E+00
  0.00000000E+00  0.00000000E+00  0.00000000E+00
  0.00000000E+00  0.00000000E+00  0.00000000E+00
  0.00000000E+00  0.00000000E+00  0.00000000E+00
  0.00000000E+00  0.00000000E+00  0.00000000E+00
  0.00000000E+00  0.00000000E+00  0.00000000E+00
  0.00000000E+00  0.00000000E+00  0.00000000E+00
