Ag(111) clean slab                      
    1.000000000000000     
     8.6655936034411418    0.0000000000000000    0.0000000000000000
     4.3327968017205709    7.5046241994519622    0.0000000000000000
     0.0000000000000000    0.0000000000000000   31.0754275489188672
   Ag
    36
Selective dynamics
Direct
     0.0000000000000000    0.0000000000000000    0.3861571970686342   F   F   F
     0.3333333333333357    0.0000000000000000    0.3861571970686342   F   F   F
     0.6666666666666643    0.0000000000000000    0.3861571970686342   F   F   F
     0.0000000000000000    0.3333333333333357    0.3861571970686342   F   F   F
     0.3333333333333357    0.3333333333333357    0.3861571970686342   F   F   F
     0.6666666666666643    0.3333333333333357    0.3861571970686342   F   F   F
     0.0000000000000000    0.6666666666666643    0.3861571970686342   F   F   F
     0.3333333333333357    0.6666666666666643    0.3861571970686342   F   F   F
     0.6666666666666643    0.6666666666666643    0.3861571970686342   F   F   F
     0.1111111111111143    0.1111111111111143    0.4620523990228804   F   F   F
     0.4444444444444429    0.1111111111111143    0.4620523990228804   F   F   F
     0.7777777777777786    0.1111111111111143    0.4620523990228804   F   F   F
     0.1111111111111143    0.4444444444444429    0.4620523990228804   F   F   F
     0.4444444444444429    0.4444444444444429    0.4620523990228804   F   F   F
     0.7777777777777786    0.4444444444444429    0.4620523990228804   F   F   F
     0.1111111111111143    0.7777777777777786    0.4620523990228804   F   F   F
     0.4444444444444429    0.7777777777777786    0.4620523990228804   F   F   F
     0.7777777777777786    0.7777777777777786    0.4620523990228804   F   F   F
     0.8888888888888857    0.2222222222222214    0.5412287729950076   T   T   T
     0.2222222222222214    0.2222222222222214    0.5412287729950076   T   T   T
     0.5555555555555571    0.2222222222222214    0.5412287729950076   T   T   T
     0.8888888888888857    0.5555555555555571    0.5412287729950076   T   T   T
     0.2222222222222214    0.5555555555555571    0.5412287729950076   T   T   T
     0.5555555555555571    0.5555555555555571    0.5412287729950076   T   T   T
     0.8888888888888857    0.8888888888888857    0.5412287729950076   T   T   T
     0.2222222222222214    0.8888888888888857    0.5412287729950076   T   T   T
     0.5555555555555571    0.8888888888888857    0.5412287729950076   T   T   T
     0.0000000000000000    0.0000000000000000    0.6208877146567926   T   T   T
     0.3333333333333357    0.0000000000000000    0.6208877146567926   T   T   T
     0.6666666666666643    0.0000000000000000    0.6208877146567926   T   T   T
     1.0000000000000000    0.3333333333333357    0.6208877146567926   T   T   T
     0.3333333333333357    0.3333333333333357    0.6208877146567926   T   T   T
     0.6666666666666643    0.3333333333333357    0.6208877146567926   T   T   T
     0.0000000000000000    0.6666666666666643    0.6208877146567926   T   T   T
     0.3333333333333357    0.6666666666666643    0.6208877146567926   T   T   T
     0.6666666666666643    0.6666666666666643    0.6208877146567926   T   T   T
 
  0.00000000E+00  0.00000000E+00  0.00000000E+00
  0.00000000E+00  0.00000000E+00  0.00000000E+00
  0.00000000E+00  0.00000000E+00  0.00000000E+00
  0.00000000E+00  0.00000000E+00  0.00000000E+00
  0.00000000E+00  0.00000000E+00  0.00000000E+00
  0.00000000E+00  0.00000000E+00  0.00000000E+00
  0.00000000E+00  0.00000000E+00  0.00000000E+00
  0.00000000E+00  0.00000000E+00  0.00000000E+00
  0.00000000E+00  0.00000000E+00  0.00000000E+00
  0.00000000E+00  0.00000000E+00  0.00000000E+00
  0.00000000E+00  0.00000000E+00  0.00000000E+00
  0.00000000E+00  0.00000000E+00  0.00000000E+00
  0.00000000E+00  0.00000000E+00  0.00000000E+00
  0.00000000E+00  0.00000000E+00  0.00000000E+00
  0.00000000E+00  0.00000000E+00  0.00000000E+00
  0.00000000E+00  0.00000000E+00  0.00000000E+00
  0.00000000E+00  0.00000000E+00  0.00000000E+00
  0.00000000E+00  0.00000000E+00  0.00000000E+00
  0.00000000E+00  0.00000000E+00  0.00000000E+00
  0.00000000E+00  0.00000000E+00  0.00000000E+00
  0.00000000E+00  0.00000000E+00  0.00000000E+00
  0.00000000E+00  0.00000000E+00  0.00000000E+00
  0.00000000E+00  0.00000000E+00  0.00000000E+00
  0.00000000E+00  0.00000000E+00  0.00000000E+00
  0.00000000E+00  0.00000000E+00  0.00000000E+00
  0.00000000E+00  0.00000000E+00  0.00000000E+00
  0.00000000E+00  0.00000000E+00  0.00000000E+00
  0.00000000E+00  0.00000000E+00  0.00000000E+00
  0.00000000E+00  0.00000000E+00  0.00000000E+00
  0.00000000E+00  0.00000000E+00  0.00000000E+00
  0.00000000E+00  0.00000000E+00  0.00000000E+00
  0.00000000E+00  0.00000000E+00  0.00000000E+00
  0.00000000E+00  0.00000000E+00  0.00000000E+00
  0.00000000E+00  0.00000000E+00  0.00000000E+00
  0.00000000E+00  0.00000000E+00  0.00000000E+00
  0.00000000E+00  0.00000000E+00  0.00000000E+00
