Ag(111) clean slab
 1.0000000000000000
     8.6655936034411418    0.0000000000000000    0.0000000000000000
     4.3327968017205709    7.5046241994519622    0.0000000000000000
     0.0000000000000000    0.0000000000000000   31.0754275489188672
 Ag
  36
Selective dynamics
Cartesian
  0.0000000000000000  0.0000000000000000 12.0000000000000000   F   F   F
  2.8885312011470470  0.0000000000000000 12.0000000000000000   F   F   F
  5.7770624022940940  0.0000000000000000 12.0000000000000000   F   F   F
  1.4442656005735235  2.5015413998173206 12.0000000000000000   F   F   F
  4.3327968017205709  2.5015413998173206 12.0000000000000000   F   F   F
  7.2213280028676170  2.5015413998173206 12.0000000000000000   F   F   F
  2.8885312011470470  5.0030827996346412 12.0000000000000000   F   F   F
  5.7770624022940940  5.0030827996346412 12.0000000000000000   F   F   F
  8.6655936034411418  5.0030827996346412 12.0000000000000000   F   F   F
  1.4442656005735235  0.8338471332724402 14.3584758496396212   F   F   F
  4.3327968017205709  0.8338471332724402 14.3584758496396212   F   F   F
  7.2213280028676170  0.8338471332724402 14.3584758496396212   F   F   F
  2.8885312011470470  3.3353885330897608 14.3584758496396212   F   F   F
  5.7770624022940940  3.3353885330897608 14.3584758496396212   F   F   F
  8.6655936034411418  3.3353885330897608 14.3584758496396212   F   F   F
  4.3327968017205709  5.8369299329070818 14.3584758496396212   F   F   F
  7.2213280028676170  5.8369299329070818 14.3584758496396212   F   F   F
 10.1098592040146649  5.8369299329070818 14.3584758496396212   F   F   F
  0.0000000000000000  1.6676942665448804 16.7169516992792424   T   T   T
  2.8885312011470470  1.6676942665448804 16.7169516992792424   T   T   T
  5.7770624022940940  1.6676942665448804 16.7169516992792424   T   T   T
  1.4442656005735235  4.1692356663622006 16.7169516992792424   T   T   T
  4.3327968017205709  4.1692356663622006 16.7169516992792424   T   T   T
  7.2213280028676170  4.1692356663622006 16.7169516992792424   T   T   T
  2.8885312011470470  6.6707770661795216 16.7169516992792424   T   T   T
  5.7770624022940940  6.6707770661795216 16.7169516992792424   T   T   T
  8.6655936034411418  6.6707770661795216 16.7169516992792424   T   T   T
  0.0000000000000000  0.0000000000000000 19.0754275489188672   T   T   T
  2.8885312011470470  0.0000000000000000 19.0754275489188672   T   T   T
  5.7770624022940940  0.0000000000000000 19.0754275489188672   T   T   T
  1.4442656005735235  2.5015413998173206 19.0754275489188672   T   T   T
  4.3327968017205709  2.5015413998173206 19.0754275489188672   T   T   T
  7.2213280028676170  2.5015413998173206 19.0754275489188672   T   T   T
  2.8885312011470470  5.0030827996346412 19.0754275489188672   T   T   T
  5.7770624022940940  5.0030827996346412 19.0754275489188672   T   T   T
  8.6655936034411418  5.0030827996346412 19.0754275489188672   T   T   T
