Ag C  O  C  O                           
    1.000000000000000     
     8.6655936034411418    0.0000000000000000    0.0000000000000000
     4.3327968017205709    7.5046241994519622    0.0000000000000000
     0.0000000000000000    0.0000000000000000   31.0754275489188672
   Ag   C    O    C    O 
    36     1     1     1     1
Selective dynamics
Direct
     0.0000000000000000    0.0000000000000000    0.3861571970686342   F   F   F
     0.3333333333333357    0.0000000000000000    0.3861571970686342   F   F   F
     0.6666666666666643    0.0000000000000000    0.3861571970686342   F   F   F
     0.0000000000000000    0.3333333333333357    0.3861571970686342   F   F   F
     0.3333333333333357    0.3333333333333357    0.3861571970686342   F   F   F
     0.6666666666666643    0.3333333333333357    0.3861571970686342   F   F   F
     0.0000000000000000    0.6666666666666643    0.3861571970686342   F   F   F
     0.3333333333333357    0.6666666666666643    0.3861571970686342   F   F   F
     0.6666666666666643    0.6666666666666643    0.3861571970686342   F   F   F
     0.1111111111111143    0.1111111111111143    0.4620523990228804   F   F   F
     0.4444444444444429    0.1111111111111143    0.4620523990228804   F   F   F
     0.7777777777777786    0.1111111111111143    0.4620523990228804   F   F   F
     0.1111111111111143    0.4444444444444429    0.4620523990228804   F   F   F
     0.4444444444444429    0.4444444444444429    0.4620523990228804   F   F   F
     0.7777777777777786    0.4444444444444429    0.4620523990228804   F   F   F
     0.1111111111111143    0.7777777777777786    0.4620523990228804   F   F   F
     0.4444444444444429    0.7777777777777786    0.4620523990228804   F   F   F
     0.7777777777777786    0.7777777777777786    0.4620523990228804   F   F   F
     0.8900276638602999    0.2199446722793932    0.5418867442577050   T   T   T
     0.2226401827741452    0.2226401827741452    0.5394043991331871   T   T   T
     0.5547196344517101    0.2226401827741452    0.5394043991331871   T   T   T
     0.8863390621601316    0.5568304689199345    0.5413067201322187   T   T   T
     0.2226401827741452    0.5547196344517101    0.5394043991331871   T   T   T
     0.5568304689199345    0.5568304689199345    0.5413067201322187   T   T   T
     0.8900276638602999    0.8900276638602999    0.5418867442577050   T   T   T
     0.2199446722793932    0.8900276638602999    0.5418867442577050   T   T   T
     0.5568304689199345    0.8863390621601316    0.5413067201322187   T   T   T
     0.0000000000000000    0.0000000000000000    0.6261295059662904   T   T   T
     0.3332500781316204    0.0021563212087934    0.6185154838385135   T   T   T
     0.6645936006595864    0.0021563212087934    0.6185154838385135   T   T   T
     0.0021563212087934    0.3332500781316204    0.6185154838385135   T   T   T
     0.3333333333333357    0.3333333333333357    0.6196870708567130   T   T   T
     0.6645936006595864    0.3332500781316204    0.6185154838385135   T   T   T
     0.0021563212087934    0.6645936006595864    0.6185154838385135   T   T   T
     0.3332500781316204    0.6645936006595864    0.6185154838385135   T   T   T
     0.6666666666666643    0.6666666666666643    0.6264153737761579   T   T   T
     0.0000000000000000    0.0000000000000000    0.7002878819099604   T   T   T
     0.0000000000000000    0.0000000000000000    0.7374129777933149   T   T   T
     0.6666666666666643    0.6666666666666643    0.7001538957265526   T   T   T
     0.6666666666666643    0.6666666666666643    0.7372863700641522   T   T   T
 
  0.00000000E+00  0.00000000E+00  0.00000000E+00
  0.00000000E+00  0.00000000E+00  0.00000000E+00
  0.00000000E+00  0.00000000E+00  0.00000000E+00
  0.00000000E+00  0.00000000E+00  0.00000000E+00
  0.00000000E+00  0.00000000E+00  0.00000000E+00
  0.00000000E+00  0.00000000E+00  0.00000000E+00
  0.00000000E+00  0.00000000E+00  0.00000000E+00
  0.00000000E+00  0.00000000E+00  0.00000000E+00
  0.00000000E+00  0.00000000E+00  0.00000000E+00
  0.00000000E+00  0.00000000E+00  0.00000000E+00
  0.00000000E+00  0.00000000E+00  0.00000000E+00
  0.00000000E+00  0.00000000E+00  0.00000000E+00
  0.00000000E+00  0.00000000E+00  0.00000000E+00
  0.00000000E+00  0.00000000E+00  0.00000000E+00
  0.00000000E+00  0.00000000E+00  0.00000000E+00
  0.00000000E+00  0.00000000E+00  0.00000000E+00
  0.00000000E+00  0.00000000E+00  0.00000000E+00
  0.00000000E+00  0.00000000E+00  0.00000000E+00
  0.00000000E+00  0.00000000E+00  0.00000000E+00
  0.00000000E+00  0.00000000E+00  0.00000000E+00
  0.00000000E+00  0.00000000E+00  0.00000000E+00
  0.00000000E+00  0.00000000E+00  0.00000000E+00
  0.00000000E+00  0.00000000E+00  0.00000000E+00
  0.00000000E+00  0.00000000E+00  0.00000000E+00
  0.00000000E+00  0.00000000E+00  0.00000000E+00
  0.00000000E+00  0.00000000E+00  0.00000000E+00
  0.00000000E+00  0.00000000E+00  0.00000000E+00
  0.00000000E+00  0.00000000E+00  0.00000000E+00
  0.00000000E+00  0.00000000E+00  0.00000000E+00
  0.00000000E+00  0.00000000E+00  0.00000000E+00
  0.00000000E+00  0.00000000E+00  0.00000000E+00
  0.00000000E+00  0.00000000E+00  0.00000000E+00
  0.00000000E+00  0.00000000E+00  0.00000000E+00
  0.00000000E+00  0.00000000E+00  0.00000000E+00
  0.00000000E+00  0.00000000E+00  0.00000000E+00
  0.00000000E+00  0.00000000E+00  0.00000000E+00
  0.00000000E+00  0.00000000E+00  0.00000000E+00
  0.00000000E+00  0.00000000E+00  0.00000000E+00
  0.00000000E+00  0.00000000E+00  0.00000000E+00
  0.00000000E+00  0.00000000E+00  0.00000000E+00
