Cu C  O  C  O  C  O  C  O  C  O  C  O   
    1.000000000000000     
     7.6685730419681093    0.0000000000000000    0.0000000000000000
     0.0000000000000000    7.6685730419681093    0.0000000000000000
     0.0000000000000000    0.0000000000000000   29.4224999999999994
   Cu   C    O    C    O    C    O    C    O    C    O    C    O 
    36     1     1     1     1     1     1     1     1     1     1     1     1
Selective dynamics
Direct
     0.1666666666666643    0.1666666666666643    0.4078511343359708   F   F   F
     0.5000000000000000    0.1666666666666643    0.4078511343359708   F   F   F
     0.8333333333333357    0.1666666666666643    0.4078511343359708   F   F   F
     0.1666666666666643    0.5000000000000000    0.4078511343359708   F   F   F
     0.5000000000000000    0.5000000000000000    0.4078511343359708   F   F   F
     0.8333333333333357    0.5000000000000000    0.4078511343359708   F   F   F
     0.1666666666666643    0.8333333333333357    0.4078511343359708   F   F   F
     0.5000000000000000    0.8333333333333357    0.4078511343359708   F   F   F
     0.8333333333333357    0.8333333333333357    0.4078511343359708   F   F   F
     0.0000000000000000    0.0000000000000000    0.4692837114453212   F   F   F
     0.3333333333333357    0.0000000000000000    0.4692837114453212   F   F   F
     0.6666666666666643    0.0000000000000000    0.4692837114453212   F   F   F
     0.0000000000000000    0.3333333333333357    0.4692837114453212   F   F   F
     0.3333333333333357    0.3333333333333357    0.4692837114453212   F   F   F
     0.6666666666666643    0.3333333333333357    0.4692837114453212   F   F   F
     0.0000000000000000    0.6666666666666643    0.4692837114453212   F   F   F
     0.3333333333333357    0.6666666666666643    0.4692837114453212   F   F   F
     0.6666666666666643    0.6666666666666643    0.4692837114453212   F   F   F
     0.1603322138200308    0.1667803551380774    0.5324503606955517   T   T   T
     0.5055969934318493    0.1667807473877987    0.5324961224535202   T   T   T
     0.8329740422590813    0.1667182527388289    0.5369438987928981   T   T   T
     0.1602213243301499    0.5000001132003469    0.5324286794354824   T   T   T
     0.5055380275294089    0.4999999510260831    0.5325078774810585   T   T   T
     0.8329376265375037    0.4999999926734656    0.5369589859918692   T   T   T
     0.1603323547173902    0.8332202216436846    0.5324503197179042   T   T   T
     0.5055967201288062    0.8332193521868441    0.5324961249382886   T   T   T
     0.8329740591920957    0.8332818789786848    0.5369439112254830   T   T   T
     0.0049238330262353    0.0000003197718566    0.6030633098111148   T   T   T
     0.3327909386784905    0.0000002742475697    0.5904203993301747   T   T   T
     0.6607495984084566    0.9999994551498860    0.6030995924528059   T   T   T
     0.0047952344949266    0.3332596129177778    0.6030693220852492   T   T   T
     0.3327063904646463    0.3333191136027920    0.5904042199465722   T   T   T
     0.6605753880150999    0.3331401370823586    0.6030743606252220   T   T   T
     0.0047951750585769    0.6667412989341412    0.6030692565804842   T   T   T
     0.3327062579494615    0.6666814691801904    0.5904042519568992   T   T   T
     0.6605753447168146    0.6668581013670823    0.6030740220017585   T   T   T
     0.0430883511742557    0.1665453625499175    0.6544740039376877   T   T   T
     0.0744456983315291    0.1665371377648151    0.6934930253547917   T   T   T
     0.0430550896050075    0.5000003109235629    0.6544252921861684   T   T   T
     0.0744531302332782    0.5000004514621492    0.6934611624904813   T   T   T
     0.0430907278914336    0.8334553690507523    0.6544736571469825   T   T   T
     0.0744488903282537    0.8334636582531159    0.6934930772297493   T   T   T
     0.6238537416810638    0.1664988375264525    0.6545922605336465   T   T   T
     0.5937403006120032    0.1666110141152255    0.6936870896338573   T   T   T
     0.6240461140580663    0.4999995148913245    0.6545146957183939   T   T   T
     0.5939148005094368    0.4999981996201236    0.6936055250847352   T   T   T
     0.6238551163981273    0.8335000793116147    0.6545920337819100   T   T   T
     0.5937511074078644    0.8333826809862129    0.6936869171919917   T   T   T
 
  0.00000000E+00  0.00000000E+00  0.00000000E+00
  0.00000000E+00  0.00000000E+00  0.00000000E+00
  0.00000000E+00  0.00000000E+00  0.00000000E+00
  0.00000000E+00  0.00000000E+00  0.00000000E+00
  0.00000000E+00  0.00000000E+00  0.00000000E+00
  0.00000000E+00  0.00000000E+00  0.00000000E+00
  0.00000000E+00  0.00000000E+00  0.00000000E+00
  0.00000000E+00  0.00000000E+00  0.00000000E+00
  0.00000000E+00  0.00000000E+00  0.00000000E+00
  0.00000000E+00  0.00000000E+00  0.00000000E+00
  0.00000000E+00  0.00000000E+00  0.00000000E+00
  0.00000000E+00  0.00000000E+00  0.00000000E+00
  0.00000000E+00  0.00000000E+00  0.00000000E+00
  0.00000000E+00  0.00000000E+00  0.00000000E+00
  0.00000000E+00  0.00000000E+00  0.00000000E+00
  0.00000000E+00  0.00000000E+00  0.00000000E+00
  0.00000000E+00  0.00000000E+00  0.00000000E+00
  0.00000000E+00  0.00000000E+00  0.00000000E+00
  0.00000000E+00  0.00000000E+00  0.00000000E+00
  0.00000000E+00  0.00000000E+00  0.00000000E+00
  0.00000000E+00  0.00000000E+00  0.00000000E+00
  0.00000000E+00  0.00000000E+00  0.00000000E+00
  0.00000000E+00  0.00000000E+00  0.00000000E+00
  0.00000000E+00  0.00000000E+00  0.00000000E+00
  0.00000000E+00  0.00000000E+00  0.00000000E+00
  0.00000000E+00  0.00000000E+00  0.00000000E+00
  0.00000000E+00  0.00000000E+00  0.00000000E+00
  0.00000000E+00  0.00000000E+00  0.00000000E+00
  0.00000000E+00  0.00000000E+00  0.00000000E+00
  0.00000000E+00  0.00000000E+00  0.00000000E+00
  0.00000000E+00  0.00000000E+00  0.00000000E+00
  0.00000000E+00  0.00000000E+00  0.00000000E+00
  0.00000000E+00  0.00000000E+00  0.00000000E+00
  0.00000000E+00  0.00000000E+00  0.00000000E+00
  0.00000000E+00  0.00000000E+00  0.00000000E+00
  0.00000000E+00  0.00000000E+00  0.00000000E+00
  0.00000000E+00  0.00000000E+00  0.00000000E+00
  0.00000000E+00  0.00000000E+00  0.00000000E+00
  0.00000000E+00  0.00000000E+00  0.00000000E+00
  0.00000000E+00  0.00000000E+00  0.00000000E+00
  0.00000000E+00  0.00000000E+00  0.00000000E+00
  0.00000000E+00  0.00000000E+00  0.00000000E+00
  0.00000000E+00  0.00000000E+00  0.00000000E+00
  0.00000000E+00  0.00000000E+00  0.00000000E+00
  0.00000000E+00  0.00000000E+00  0.00000000E+00
  0.00000000E+00  0.00000000E+00  0.00000000E+00
  0.00000000E+00  0.00000000E+00  0.00000000E+00
  0.00000000E+00  0.00000000E+00  0.00000000E+00
