Cu Ag Cu Ag Cu Ag Cu Ag C  O            
    1.000000000000000     
     5.2785521215575777    0.0000000000000000    0.0000000000000000
     2.6392760607787888    4.5713602324691056    0.0000000000000000
     0.0000000000000000    0.0000000000000000   30.4648796392508352
   Cu   Ag   Cu   Ag   Cu   Ag   Cu   Ag   C    O 
     3     1     3     1     3     1     3     1     1     1
Selective dynamics
Direct
     0.0000000000000000    0.0000000000000000    0.3938961893858703   F   F   F
     0.5000000000000000    0.0000000000000000    0.3938961893858703   F   F   F
     0.0000000000000000    0.5000000000000000    0.3938961893858703   F   F   F
     0.5000000000000000    0.5000000000000000    0.3938961893858703   F   F   F
     0.1666666666666643    0.1666666666666643    0.4646320631286258   F   F   F
     0.6666666666666643    0.1666666666666643    0.4646320631286258   F   F   F
     0.1666666666666643    0.6666666666666643    0.4646320631286258   F   F   F
     0.6666666666666643    0.6666666666666643    0.4646320631286258   F   F   F
     0.8268449438703050    0.3303626774184261    0.5373577909397023   T   T   T
     0.3271945968647949    0.3340045694483295    0.5343145189279582   T   T   T
     0.8265350633685452    0.8375477435574319    0.5408209650177240   T   T   T
     0.3223956070480486    0.8371273278471258    0.5391510791067309   T   T   T
     0.9940765381181038    0.9962578395872423    0.6126338106036495   T   T   T
     0.5050444962778685    0.9974506335618533    0.6117356204973105   T   T   T
     0.0035430009888134    0.4918558772550446    0.6076357895479362   T   T   T
     0.5015401888242709    0.4946757723355508    0.6177834990857337   T   T   T
     0.1698858012052401    0.1653557653177457    0.6570856261981843   T   T   T
     0.1621227636671407    0.1776794794750626    0.6960910173644528   T   T   T
 
  0.00000000E+00  0.00000000E+00  0.00000000E+00
  0.00000000E+00  0.00000000E+00  0.00000000E+00
  0.00000000E+00  0.00000000E+00  0.00000000E+00
  0.00000000E+00  0.00000000E+00  0.00000000E+00
  0.00000000E+00  0.00000000E+00  0.00000000E+00
  0.00000000E+00  0.00000000E+00  0.00000000E+00
  0.00000000E+00  0.00000000E+00  0.00000000E+00
  0.00000000E+00  0.00000000E+00  0.00000000E+00
  0.00000000E+00  0.00000000E+00  0.00000000E+00
  0.00000000E+00  0.00000000E+00  0.00000000E+00
  0.00000000E+00  0.00000000E+00  0.00000000E+00
  0.00000000E+00  0.00000000E+00  0.00000000E+00
  0.00000000E+00  0.00000000E+00  0.00000000E+00
  0.00000000E+00  0.00000000E+00  0.00000000E+00
  0.00000000E+00  0.00000000E+00  0.00000000E+00
  0.00000000E+00  0.00000000E+00  0.00000000E+00
  0.00000000E+00  0.00000000E+00  0.00000000E+00
  0.00000000E+00  0.00000000E+00  0.00000000E+00
