Cu Ag Cu Ag Cu Ag Cu Ag C  O 
 1.0000000000000000
     5.2785521215575777    0.0000000000000000    0.0000000000000000
     2.6392760607787888    4.5713602324691056    0.0000000000000000
     0.0000000000000000    0.0000000000000000   30.4648796392508352
 Cu  Ag  Cu  Ag  Cu  Ag  Cu  Ag  C   O  
   3   1   3   1   3   1   3   1   1   1
Selective dynamics
Cartesian
  0.0000000000000000  0.0000000000000000 12.0000000000000000   F   F   F
  2.6392760607787888  0.0000000000000000 12.0000000000000000   F   F   F
  1.3196380303893944  2.2856801162345528 12.0000000000000000   F   F   F
  3.9589140911681833  2.2856801162345528 12.0000000000000000   F   F   F
  1.3196380303893944  0.7618933720781842 14.1549598797502778   F   F   F
  3.9589140911681833  0.7618933720781842 14.1549598797502778   F   F   F
  2.6392760607787888  3.0475734883127368 14.1549598797502778   F   F   F
  5.2785521215575777  3.0475734883127368 14.1549598797502778   F   F   F
  0.0000000000000000  1.5237867441563684 16.3099197595005556   T   T   T
  2.6392760607787888  1.5237867441563684 16.3099197595005556   T   T   T
  1.3196380303893944  3.8094668603909212 16.3099197595005556   T   T   T
  3.9589140911681833  3.8094668603909212 16.3099197595005556   T   T   T
  0.0000000000000000  0.0000000000000000 18.4648796392508352   T   T   T
  2.6392760607787888  0.0000000000000000 18.4648796392508352   T   T   T
  1.3196380303893944  2.2856801162345528 18.4648796392508352   T   T   T
  3.9589140911681833  2.2856801162345528 18.4648796392508352   T   T   T
  1.3196380303893944  0.7618933720781842 20.2648796392508359   T   T   T
  1.3196380303893944  0.7618933720781842 21.3948796392508349   T   T   T
