Cu Ag Cu Ag Cu Ag Cu Ag C  O            
    1.000000000000000     
     5.6108923087152549    0.0000000000000000    0.0000000000000000
     2.8054461543576275    4.8591752772461287    0.0000000000000000
     0.0000000000000000    0.0000000000000000   30.8719115790295220
   Cu   Ag   Cu   Ag   Cu   Ag   Cu   Ag
     1     3     1     3     1     3     1     3
Selective dynamics
Direct
     0.0000000000000000    0.0000000000000000    0.3887028494909046   F   F   F
     0.5000000000000000    0.0000000000000000    0.3887028494909046   F   F   F
     0.0000000000000000    0.5000000000000000    0.3887028494909046   F   F   F
     0.5000000000000000    0.5000000000000000    0.3887028494909046   F   F   F
     0.1666666666666643    0.1666666666666643    0.4629009498302992   F   F   F
     0.6666666666666643    0.1666666666666643    0.4629009498302992   F   F   F
     0.1666666666666643    0.6666666666666643    0.4629009498302992   F   F   F
     0.6666666666666643    0.6666666666666643    0.4629009498302992   F   F   F
     0.8368863330696136    0.3287376061492983    0.5364483591724963   T   T   T
     0.3265673283319900    0.3325934387651575    0.5393420241170822   T   T   T
     0.8280473726744728    0.8345320323757399    0.5421902569820438   T   T   T
     0.3289326459217108    0.8365800762961765    0.5393940237453223   T   T   T
     0.9965174295243772    0.0101236529912876    0.6114172812027151   T   T   T
     0.5008261449956426    0.9980285409703709    0.6241881168901803   T   T   T
     0.0004299920638095    0.4982668757355873    0.6203302859114080   T   T   T
     0.5025462992835720    0.4973528226736080    0.6182784793414855   T   T   T
 
  0.00000000E+00  0.00000000E+00  0.00000000E+00
  0.00000000E+00  0.00000000E+00  0.00000000E+00
  0.00000000E+00  0.00000000E+00  0.00000000E+00
  0.00000000E+00  0.00000000E+00  0.00000000E+00
  0.00000000E+00  0.00000000E+00  0.00000000E+00
  0.00000000E+00  0.00000000E+00  0.00000000E+00
  0.00000000E+00  0.00000000E+00  0.00000000E+00
  0.00000000E+00  0.00000000E+00  0.00000000E+00
  0.00000000E+00  0.00000000E+00  0.00000000E+00
  0.00000000E+00  0.00000000E+00  0.00000000E+00
  0.00000000E+00  0.00000000E+00  0.00000000E+00
  0.00000000E+00  0.00000000E+00  0.00000000E+00
  0.00000000E+00  0.00000000E+00  0.00000000E+00
  0.00000000E+00  0.00000000E+00  0.00000000E+00
  0.00000000E+00  0.00000000E+00  0.00000000E+00
  0.00000000E+00  0.00000000E+00  0.00000000E+00
