Cu Ag Cu Ag Cu Ag Cu Ag C  O 
 1.0000000000000000
     5.6108923087152549    0.0000000000000000    0.0000000000000000
     2.8054461543576275    4.8591752772461287    0.0000000000000000
     0.0000000000000000    0.0000000000000000   30.8719115790295220
 Cu  Ag  Cu  Ag  Cu  Ag  Cu  Ag
   1   3   1   3   1   3   1   3
Selective dynamics
Cartesian
  0.0000000000000000  0.0000000000000000 12.0000000000000000   F   F   F
  2.8054461543576275  0.0000000000000000 12.0000000000000000   F   F   F
  1.4027230771788137  2.4295876386230644 12.0000000000000000   F   F   F
  4.2081692315364414  2.4295876386230644 12.0000000000000000   F   F   F
  1.4027230771788135  0.8098625462076880 14.2906371930098395   F   F   F
  4.2081692315364405  0.8098625462076880 14.2906371930098395   F   F   F
  2.8054461543576270  3.2394501848307522 14.2906371930098395   F   F   F
  5.6108923087152540  3.2394501848307522 14.2906371930098395   F   F   F
  0.0000000000000000  1.6197250924153761 16.5812743860196790   T   T   T
  2.8054461543576279  1.6197250924153761 16.5812743860196790   T   T   T
  1.4027230771788137  4.0493127310384400 16.5812743860196790   T   T   T
  4.2081692315364414  4.0493127310384400 16.5812743860196790   T   T   T
  0.0000000000000000  0.0000000000000000 18.8719115790295220   T   T   T
  2.8054461543576275  0.0000000000000000 18.8719115790295220   T   T   T
  1.4027230771788137  2.4295876386230644 18.8719115790295220   T   T   T
  4.2081692315364414  2.4295876386230644 18.8719115790295220   T   T   T
