Cu Ag Cu Ag Cu Ag Cu Ag Cu Ag Cu Ag Cu A
    1.000000000000000     
    10.8894444302728335    0.0000000000000000    0.0000000000000000
     2.7223611075682084    4.7152677548576172    0.0000000000000000
     0.0000000000000000    0.0000000000000000   30.6683956091401768
   Cu   Ag   Cu   Ag   Cu   Ag   Cu   Ag   Cu   Ag   Cu   Ag   Cu   Ag   Cu   Ag   C    O 
     3     1     2     2     2     2     2     2     3     1     2     2     3     1     2     2     1     1
Selective dynamics
Direct
     0.0000000000000000    0.0000000000000000    0.3912822878945619   F   F   F
     0.2500000000000000    0.0000000000000000    0.3912822878945619   F   F   F
     0.5000000000000000    0.0000000000000000    0.3912822878945619   F   F   F
     0.7500000000000000    0.0000000000000000    0.3912822878945619   F   F   F
     0.0000000000000000    0.5000000000000000    0.3912822878945619   F   F   F
     0.2500000000000000    0.5000000000000000    0.3912822878945619   F   F   F
     0.5000000000000000    0.5000000000000000    0.3912822878945619   F   F   F
     0.7500000000000000    0.5000000000000000    0.3912822878945619   F   F   F
     0.0833333333333357    0.1666666666666643    0.4637607626315230   F   F   F
     0.3333333333333357    0.1666666666666643    0.4637607626315230   F   F   F
     0.5833333333333357    0.1666666666666643    0.4637607626315230   F   F   F
     0.8333333333333357    0.1666666666666643    0.4637607626315230   F   F   F
     0.0833333333333357    0.6666666666666643    0.4637607626315230   F   F   F
     0.3333333333333357    0.6666666666666643    0.4637607626315230   F   F   F
     0.5833333333333357    0.6666666666666643    0.4637607626315230   F   F   F
     0.8333333333333357    0.6666666666666643    0.4637607626315230   F   F   F
     0.9344928704725434    0.3220941803057376    0.5358617370812611   T   T   T
     0.1623765006935648    0.3488385275780012    0.5312440241823670   T   T   T
     0.4030301092722889    0.3516679964276285    0.5339549633564780   T   T   T
     0.6801048519663180    0.3287418342629391    0.5454201578878904   T   T   T
     0.9319850336376058    0.8229546295471754    0.5352515069078850   T   T   T
     0.1634477018477098    0.8341418615470345    0.5321232232177178   T   T   T
     0.4069261144705935    0.8489893071048326    0.5376297285400844   T   T   T
     0.6729016637046412    0.8401769687843464    0.5465994615169859   T   T   T
     0.9999305860472451    0.0030551763164728    0.6025280052581469   T   T   T
     0.2229357799682080    0.0351165974911020    0.6024152891888512   T   T   T
     0.4729317793221001    0.0531798482802191    0.6114098348178449   T   T   T
     0.7543723672714666    0.0048007881208382    0.6269310144010889   T   T   T
     0.9981309920607819    0.5135925916182323    0.6020713143990334   T   T   T
     0.2331360891070894    0.5235546138138460    0.6022802137107496   T   T   T
     0.4819411337194240    0.5424488734936862    0.6182925845429732   T   T   T
     0.7592815591766601    0.5016501720950308    0.6254960679329566   T   T   T
     0.3212272690538597    0.2873778640840315    0.6553164626391844   T   T   T
     0.3042429421817214    0.2888564300870237    0.6934385832934411   T   T   T
 
  0.00000000E+00  0.00000000E+00  0.00000000E+00
  0.00000000E+00  0.00000000E+00  0.00000000E+00
  0.00000000E+00  0.00000000E+00  0.00000000E+00
  0.00000000E+00  0.00000000E+00  0.00000000E+00
  0.00000000E+00  0.00000000E+00  0.00000000E+00
  0.00000000E+00  0.00000000E+00  0.00000000E+00
  0.00000000E+00  0.00000000E+00  0.00000000E+00
  0.00000000E+00  0.00000000E+00  0.00000000E+00
  0.00000000E+00  0.00000000E+00  0.00000000E+00
  0.00000000E+00  0.00000000E+00  0.00000000E+00
  0.00000000E+00  0.00000000E+00  0.00000000E+00
  0.00000000E+00  0.00000000E+00  0.00000000E+00
  0.00000000E+00  0.00000000E+00  0.00000000E+00
  0.00000000E+00  0.00000000E+00  0.00000000E+00
  0.00000000E+00  0.00000000E+00  0.00000000E+00
  0.00000000E+00  0.00000000E+00  0.00000000E+00
  0.00000000E+00  0.00000000E+00  0.00000000E+00
  0.00000000E+00  0.00000000E+00  0.00000000E+00
  0.00000000E+00  0.00000000E+00  0.00000000E+00
  0.00000000E+00  0.00000000E+00  0.00000000E+00
  0.00000000E+00  0.00000000E+00  0.00000000E+00
  0.00000000E+00  0.00000000E+00  0.00000000E+00
  0.00000000E+00  0.00000000E+00  0.00000000E+00
  0.00000000E+00  0.00000000E+00  0.00000000E+00
  0.00000000E+00  0.00000000E+00  0.00000000E+00
  0.00000000E+00  0.00000000E+00  0.00000000E+00
  0.00000000E+00  0.00000000E+00  0.00000000E+00
  0.00000000E+00  0.00000000E+00  0.00000000E+00
  0.00000000E+00  0.00000000E+00  0.00000000E+00
  0.00000000E+00  0.00000000E+00  0.00000000E+00
  0.00000000E+00  0.00000000E+00  0.00000000E+00
  0.00000000E+00  0.00000000E+00  0.00000000E+00
  0.00000000E+00  0.00000000E+00  0.00000000E+00
  0.00000000E+00  0.00000000E+00  0.00000000E+00
