Cu Ag Cu Ag Cu Ag Cu Ag C  O            
    1.000000000000000     
     5.6108923087152549    0.0000000000000000    0.0000000000000000
     2.8054461543576275    4.8591752772461287    0.0000000000000000
     0.0000000000000000    0.0000000000000000   30.8719115790295220
   Cu   Ag   Cu   Ag   Cu   Ag   Cu   Ag   C    O 
     1     3     1     3     1     3     1     3     1     1
Selective dynamics
Direct
     0.0000000000000000    0.0000000000000000    0.3887028494909046   F   F   F
     0.5000000000000000    0.0000000000000000    0.3887028494909046   F   F   F
     0.0000000000000000    0.5000000000000000    0.3887028494909046   F   F   F
     0.5000000000000000    0.5000000000000000    0.3887028494909046   F   F   F
     0.1666666666666643    0.1666666666666643    0.4629009498302992   F   F   F
     0.6666666666666643    0.1666666666666643    0.4629009498302992   F   F   F
     0.1666666666666643    0.6666666666666643    0.4629009498302992   F   F   F
     0.6666666666666643    0.6666666666666643    0.4629009498302992   F   F   F
     0.8419301415389437    0.3352486393325727    0.5373296483489011   T   T   T
     0.3321505795212943    0.3393788985107364    0.5391682739135055   T   T   T
     0.8354363762231866    0.8442840217226086    0.5434909591881280   T   T   T
     0.3293242389607810    0.8480678381183780    0.5402265688917256   T   T   T
     0.0216149738950644    0.9978301541100427    0.6177708434599685   T   T   T
     0.5207175033065582    0.9956452531759284    0.6235746906823142   T   T   T
     0.0201405311663864    0.4950795086458979    0.6190402710873689   T   T   T
     0.5248644001699888    0.4912919065319757    0.6150962053236562   T   T   T
     0.0380993548474905    0.0001531491366515    0.6787142061558049   T   T   T
     0.0410926007936833    0.0006728943323904    0.7164412714233281   T   T   T
 
  0.00000000E+00  0.00000000E+00  0.00000000E+00
  0.00000000E+00  0.00000000E+00  0.00000000E+00
  0.00000000E+00  0.00000000E+00  0.00000000E+00
  0.00000000E+00  0.00000000E+00  0.00000000E+00
  0.00000000E+00  0.00000000E+00  0.00000000E+00
  0.00000000E+00  0.00000000E+00  0.00000000E+00
  0.00000000E+00  0.00000000E+00  0.00000000E+00
  0.00000000E+00  0.00000000E+00  0.00000000E+00
  0.00000000E+00  0.00000000E+00  0.00000000E+00
  0.00000000E+00  0.00000000E+00  0.00000000E+00
  0.00000000E+00  0.00000000E+00  0.00000000E+00
  0.00000000E+00  0.00000000E+00  0.00000000E+00
  0.00000000E+00  0.00000000E+00  0.00000000E+00
  0.00000000E+00  0.00000000E+00  0.00000000E+00
  0.00000000E+00  0.00000000E+00  0.00000000E+00
  0.00000000E+00  0.00000000E+00  0.00000000E+00
  0.00000000E+00  0.00000000E+00  0.00000000E+00
  0.00000000E+00  0.00000000E+00  0.00000000E+00
