Cu                                      
    1.000000000000000     
     7.6685730419681093    0.0000000000000000    0.0000000000000000
     0.0000000000000000    7.6685730419681093    0.0000000000000000
     0.0000000000000000    0.0000000000000000   29.4224999999999994
   Cu
    36
Selective dynamics
Direct
     0.1666666666666643    0.1666666666666643    0.4078511343359708   F   F   F
     0.5000000000000000    0.1666666666666643    0.4078511343359708   F   F   F
     0.8333333333333357    0.1666666666666643    0.4078511343359708   F   F   F
     0.1666666666666643    0.5000000000000000    0.4078511343359708   F   F   F
     0.5000000000000000    0.5000000000000000    0.4078511343359708   F   F   F
     0.8333333333333357    0.5000000000000000    0.4078511343359708   F   F   F
     0.1666666666666643    0.8333333333333357    0.4078511343359708   F   F   F
     0.5000000000000000    0.8333333333333357    0.4078511343359708   F   F   F
     0.8333333333333357    0.8333333333333357    0.4078511343359708   F   F   F
     0.0000000000000000    0.0000000000000000    0.4692837114453212   F   F   F
     0.3333333333333357    0.0000000000000000    0.4692837114453212   F   F   F
     0.6666666666666643    0.0000000000000000    0.4692837114453212   F   F   F
     0.0000000000000000    0.3333333333333357    0.4692837114453212   F   F   F
     0.3333333333333357    0.3333333333333357    0.4692837114453212   F   F   F
     0.6666666666666643    0.3333333333333357    0.4692837114453212   F   F   F
     0.0000000000000000    0.6666666666666643    0.4692837114453212   F   F   F
     0.3333333333333357    0.6666666666666643    0.4692837114453212   F   F   F
     0.6666666666666643    0.6666666666666643    0.4692837114453212   F   F   F
     0.1666666666666643    0.1666666666666643    0.5337104688045495   T   T   T
     0.5000000000000000    0.1666666666666643    0.5337104688045495   T   T   T
     0.8333333333333357    0.1666666666666643    0.5337104688045495   T   T   T
     0.1666666666666643    0.5000000000000000    0.5337104688045495   T   T   T
     0.5000000000000000    0.5000000000000000    0.5337104688045495   T   T   T
     0.8333333333333357    0.5000000000000000    0.5337104688045495   T   T   T
     0.1666666666666643    0.8333333333333357    0.5337104688045495   T   T   T
     0.5000000000000000    0.8333333333333357    0.5337104688045495   T   T   T
     0.8333333333333357    0.8333333333333357    0.5337104688045495   T   T   T
     1.0000000000000000    1.0000000000000000    0.5961482706310978   T   T   T
     0.3333333333333357    0.0000000000000000    0.5961482706310978   T   T   T
     0.6666666666666643    0.0000000000000000    0.5961482706310978   T   T   T
     1.0000000000000000    0.3333333333333357    0.5961482706310978   T   T   T
     0.3333333333333357    0.3333333333333357    0.5961482706310978   T   T   T
     0.6666666666666643    0.3333333333333357    0.5961482706310978   T   T   T
     1.0000000000000000    0.6666666666666643    0.5961482706310978   T   T   T
     0.3333333333333357    0.6666666666666643    0.5961482706310978   T   T   T
     0.6666666666666643    0.6666666666666643    0.5961482706310978   T   T   T
 
  0.00000000E+00  0.00000000E+00  0.00000000E+00
  0.00000000E+00  0.00000000E+00  0.00000000E+00
  0.00000000E+00  0.00000000E+00  0.00000000E+00
  0.00000000E+00  0.00000000E+00  0.00000000E+00
  0.00000000E+00  0.00000000E+00  0.00000000E+00
  0.00000000E+00  0.00000000E+00  0.00000000E+00
  0.00000000E+00  0.00000000E+00  0.00000000E+00
  0.00000000E+00  0.00000000E+00  0.00000000E+00
  0.00000000E+00  0.00000000E+00  0.00000000E+00
  0.00000000E+00  0.00000000E+00  0.00000000E+00
  0.00000000E+00  0.00000000E+00  0.00000000E+00
  0.00000000E+00  0.00000000E+00  0.00000000E+00
  0.00000000E+00  0.00000000E+00  0.00000000E+00
  0.00000000E+00  0.00000000E+00  0.00000000E+00
  0.00000000E+00  0.00000000E+00  0.00000000E+00
  0.00000000E+00  0.00000000E+00  0.00000000E+00
  0.00000000E+00  0.00000000E+00  0.00000000E+00
  0.00000000E+00  0.00000000E+00  0.00000000E+00
  0.00000000E+00  0.00000000E+00  0.00000000E+00
  0.00000000E+00  0.00000000E+00  0.00000000E+00
  0.00000000E+00  0.00000000E+00  0.00000000E+00
  0.00000000E+00  0.00000000E+00  0.00000000E+00
  0.00000000E+00  0.00000000E+00  0.00000000E+00
  0.00000000E+00  0.00000000E+00  0.00000000E+00
  0.00000000E+00  0.00000000E+00  0.00000000E+00
  0.00000000E+00  0.00000000E+00  0.00000000E+00
  0.00000000E+00  0.00000000E+00  0.00000000E+00
  0.00000000E+00  0.00000000E+00  0.00000000E+00
  0.00000000E+00  0.00000000E+00  0.00000000E+00
  0.00000000E+00  0.00000000E+00  0.00000000E+00
  0.00000000E+00  0.00000000E+00  0.00000000E+00
  0.00000000E+00  0.00000000E+00  0.00000000E+00
  0.00000000E+00  0.00000000E+00  0.00000000E+00
  0.00000000E+00  0.00000000E+00  0.00000000E+00
  0.00000000E+00  0.00000000E+00  0.00000000E+00
  0.00000000E+00  0.00000000E+00  0.00000000E+00
