Cu
 1.0000000000000000
     7.6685730419681093    0.0000000000000000    0.0000000000000000
     0.0000000000000000    7.6685730419681093    0.0000000000000000
     0.0000000000000000    0.0000000000000000   29.4224999999999994
 Cu 
  36
Selective dynamics
Cartesian
  1.2780955069946849  1.2780955069946849 12.0000000000000000   F   F   F
  3.8342865209840546  1.2780955069946849 12.0000000000000000   F   F   F
  6.3904775349734244  1.2780955069946849 12.0000000000000000   F   F   F
  1.2780955069946849  3.8342865209840546 12.0000000000000000   F   F   F
  3.8342865209840546  3.8342865209840546 12.0000000000000000   F   F   F
  6.3904775349734244  3.8342865209840546 12.0000000000000000   F   F   F
  1.2780955069946849  6.3904775349734244 12.0000000000000000   F   F   F
  3.8342865209840546  6.3904775349734244 12.0000000000000000   F   F   F
  6.3904775349734244  6.3904775349734244 12.0000000000000000   F   F   F
  0.0000000000000000  0.0000000000000000 13.8075000000000010   F   F   F
  2.5561910139893698  0.0000000000000000 13.8075000000000010   F   F   F
  5.1123820279787395  0.0000000000000000 13.8075000000000010   F   F   F
  0.0000000000000000  2.5561910139893698 13.8075000000000010   F   F   F
  2.5561910139893698  2.5561910139893698 13.8075000000000010   F   F   F
  5.1123820279787395  2.5561910139893698 13.8075000000000010   F   F   F
  0.0000000000000000  5.1123820279787395 13.8075000000000010   F   F   F
  2.5561910139893698  5.1123820279787395 13.8075000000000010   F   F   F
  5.1123820279787395  5.1123820279787395 13.8075000000000010   F   F   F
  1.2780955069946849  1.2780955069946849 15.6150000000000002   T   T   T
  3.8342865209840546  1.2780955069946849 15.6150000000000002   T   T   T
  6.3904775349734244  1.2780955069946849 15.6150000000000002   T   T   T
  1.2780955069946849  3.8342865209840546 15.6150000000000002   T   T   T
  3.8342865209840546  3.8342865209840546 15.6150000000000002   T   T   T
  6.3904775349734244  3.8342865209840546 15.6150000000000002   T   T   T
  1.2780955069946849  6.3904775349734244 15.6150000000000002   T   T   T
  3.8342865209840546  6.3904775349734244 15.6150000000000002   T   T   T
  6.3904775349734244  6.3904775349734244 15.6150000000000002   T   T   T
  0.0000000000000000  0.0000000000000000 17.4224999999999994   T   T   T
  2.5561910139893698  0.0000000000000000 17.4224999999999994   T   T   T
  5.1123820279787395  0.0000000000000000 17.4224999999999994   T   T   T
  0.0000000000000000  2.5561910139893698 17.4224999999999994   T   T   T
  2.5561910139893698  2.5561910139893698 17.4224999999999994   T   T   T
  5.1123820279787395  2.5561910139893698 17.4224999999999994   T   T   T
  0.0000000000000000  5.1123820279787395 17.4224999999999994   T   T   T
  2.5561910139893698  5.1123820279787395 17.4224999999999994   T   T   T
  5.1123820279787395  5.1123820279787395 17.4224999999999994   T   T   T
