50% Au Cu(111) slab
1.0
     10.28133259845240      0.00000000000000      0.00000000000000
      5.14066629922620      8.90389521501685      0.00000000000000
      0.00000000000000      0.00000000000000     36.29600468551287
   Au   Cu
     8    56
Selective dynamics
Direct
    0.5002158930909434    0.2495682138181132    0.5884442823175263  T  T  T
    0.0002158930909434    0.2495682138181132    0.5884442823175263  T  T  T
    0.2502158930909434    0.2495682138181132    0.5884442823175263  T  T  T
    0.7502158930909434    0.2495682138181132    0.5884442823175263  T  T  T
    0.0051562882799963    0.9896874234400072    0.5830296189286045  T  T  T
    0.2551562882799964    0.9896874234400072    0.5830296189286045  T  T  T
    0.5051562882799963    0.9896874234400072    0.5830296189286045  T  T  T
    0.7551562882799963    0.9896874234400072    0.5830296189286045  T  T  T
    0.6665135763488725    0.6669728473022480    0.5262976798584103  T  T  T
    0.4165135763488724    0.6669728473022480    0.5262976798584103  T  T  T
    0.1665135763488723    0.6669728473022480    0.5262976798584103  T  T  T
    0.9165135763488725    0.6669728473022480    0.5262976798584103  T  T  T
    0.0000000000000000    0.0000000000000000    0.4132686263947676  F  F  F
    0.6658079078894981    0.4183841842209964    0.5265204324978354  T  T  T
    0.4158079078894982    0.4183841842209964    0.5265204324978354  T  T  T
    0.1658079078894983    0.4183841842209964    0.5265204324978354  T  T  T
    0.9158079078894981    0.4183841842209964    0.5265204324978354  T  T  T
    0.6677589545634200    0.1644820908731532    0.5260437227162781  T  T  T
    0.4177589545634198    0.1644820908731532    0.5260437227162781  T  T  T
    0.9171743578882611    0.9156512842234705    0.5262978879925043  T  T  T
    0.1671743578882611    0.9156512842234705    0.5262978879925043  T  T  T
    0.6671743578882611    0.9156512842234705    0.5262978879925043  T  T  T
    0.1677589545634199    0.1644820908731532    0.5260437227162781  T  T  T
    0.9950775768942703    0.5098448462114591    0.5830987642365389  T  T  T
    0.2450775768942706    0.5098448462114591    0.5830987642365389  T  T  T
    0.4950775768942705    0.5098448462114591    0.5830987642365389  T  T  T
    0.7450775768942703    0.5098448462114591    0.5830987642365389  T  T  T
    0.0001175217302027    0.7497649565395945    0.5825517108510834  T  T  T
    0.2501175217302027    0.7497649565395945    0.5825517108510834  T  T  T
    0.4171743578882612    0.9156512842234705    0.5262978879925043  T  T  T
    0.9177589545634200    0.1644820908731532    0.5260437227162781  T  T  T
    0.8333333333333357    0.8333333333333357    0.4710895421315868  F  F  F
    0.5833333333333357    0.8333333333333357    0.4710895421315868  F  F  F
    0.2500000000000000    0.0000000000000000    0.4132686263947676  F  F  F
    0.5000000000000000    0.0000000000000000    0.4132686263947676  F  F  F
    0.7500000000000000    0.0000000000000000    0.4132686263947676  F  F  F
    0.0000000000000000    0.2500000000000000    0.4132686263947676  F  F  F
    0.2500000000000000    0.2500000000000000    0.4132686263947676  F  F  F
    0.5000000000000000    0.2500000000000000    0.4132686263947676  F  F  F
    0.7500000000000000    0.2500000000000000    0.4132686263947676  F  F  F
    0.0000000000000000    0.5000000000000000    0.4132686263947676  F  F  F
    0.2500000000000000    0.5000000000000000    0.4132686263947676  F  F  F
    0.5000000000000000    0.5000000000000000    0.4132686263947676  F  F  F
    0.7500000000000000    0.5000000000000000    0.4132686263947676  F  F  F
    0.0000000000000000    0.7500000000000000    0.4132686263947676  F  F  F
    0.2500000000000000    0.7500000000000000    0.4132686263947676  F  F  F
    0.5000000000000000    0.7500000000000000    0.4132686263947676  F  F  F
    0.7500000000000000    0.7500000000000000    0.4132686263947676  F  F  F
    0.0833333333333357    0.0833333333333357    0.4710895421315868  F  F  F
    0.3333333333333357    0.0833333333333357    0.4710895421315868  F  F  F
    0.5833333333333357    0.0833333333333357    0.4710895421315868  F  F  F
    0.8333333333333357    0.0833333333333357    0.4710895421315868  F  F  F
    0.0833333333333357    0.3333333333333357    0.4710895421315868  F  F  F
    0.3333333333333357    0.3333333333333357    0.4710895421315868  F  F  F
    0.5833333333333357    0.3333333333333357    0.4710895421315868  F  F  F
    0.8333333333333357    0.3333333333333357    0.4710895421315868  F  F  F
    0.0833333333333357    0.5833333333333357    0.4710895421315868  F  F  F
    0.3333333333333357    0.5833333333333357    0.4710895421315868  F  F  F
    0.5833333333333357    0.5833333333333357    0.4710895421315868  F  F  F
    0.8333333333333357    0.5833333333333357    0.4710895421315868  F  F  F
    0.0833333333333357    0.8333333333333357    0.4710895421315868  F  F  F
    0.3333333333333357    0.8333333333333357    0.4710895421315868  F  F  F
    0.5001175217302027    0.7497649565395945    0.5825517108510834  T  T  T
    0.7501175217302027    0.7497649565395945    0.5825517108510834  T  T  T
