Cu C  O                                 
    1.000000000000000     
     7.6685730419681093    0.0000000000000000    0.0000000000000000
     0.0000000000000000    7.6685730419681093    0.0000000000000000
     0.0000000000000000    0.0000000000000000   29.4224999999999994
   Cu   C    O 
    36     1     1
Selective dynamics
Direct
     0.1666666666666643    0.1666666666666643    0.4078511343359708   F   F   F
     0.5000000000000000    0.1666666666666643    0.4078511343359708   F   F   F
     0.8333333333333357    0.1666666666666643    0.4078511343359708   F   F   F
     0.1666666666666643    0.5000000000000000    0.4078511343359708   F   F   F
     0.5000000000000000    0.5000000000000000    0.4078511343359708   F   F   F
     0.8333333333333357    0.5000000000000000    0.4078511343359708   F   F   F
     0.1666666666666643    0.8333333333333357    0.4078511343359708   F   F   F
     0.5000000000000000    0.8333333333333357    0.4078511343359708   F   F   F
     0.8333333333333357    0.8333333333333357    0.4078511343359708   F   F   F
     0.0000000000000000    0.0000000000000000    0.4692837114453212   F   F   F
     0.3333333333333357    0.0000000000000000    0.4692837114453212   F   F   F
     0.6666666666666643    0.0000000000000000    0.4692837114453212   F   F   F
     0.0000000000000000    0.3333333333333357    0.4692837114453212   F   F   F
     0.3333333333333357    0.3333333333333357    0.4692837114453212   F   F   F
     0.6666666666666643    0.3333333333333357    0.4692837114453212   F   F   F
     0.0000000000000000    0.6666666666666643    0.4692837114453212   F   F   F
     0.3333333333333357    0.6666666666666643    0.4692837114453212   F   F   F
     0.6666666666666643    0.6666666666666643    0.4692837114453212   F   F   F
     0.1666666666666643    0.1666666666666643    0.5306320576603072   T   T   T
     0.4984041542087499    0.1666666666666643    0.5339265309275240   T   T   T
     0.8349291791245858    0.1666666666666643    0.5339265309275240   T   T   T
     0.1666666666666643    0.4984041542087499    0.5339265309275240   T   T   T
     0.4989525522198222    0.4989525522198222    0.5342777035780997   T   T   T
     0.8343807811135132    0.4989525522198222    0.5342777035780997   T   T   T
     0.1666666666666643    0.8349291791245858    0.5339265309275240   T   T   T
     0.4989525522198222    0.8343807811135132    0.5342777035780997   T   T   T
     0.8343807811135132    0.8343807811135132    0.5342777035780997   T   T   T
     0.0015702883014520    0.0015702883014520    0.5980829845079431   T   T   T
     0.3317630450318840    0.0015702883014520    0.5980829845079431   T   T   T
     0.6666666666666643    0.0006835663156149    0.5961863739845842   T   T   T
     0.0015702883014520    0.3317630450318840    0.5980829845079431   T   T   T
     0.3317630450318840    0.3317630450318840    0.5980829845079431   T   T   T
     0.6666666666666643    0.3326497670177209    0.5961863739845842   T   T   T
     0.0006835663156149    0.6666666666666643    0.5961863739845842   T   T   T
     0.3326497670177209    0.6666666666666643    0.5961863739845842   T   T   T
     0.6666666666666643    0.6666666666666643    0.5966525011335221   T   T   T
     0.1666666666666643    0.1666666666666643    0.6402567033842559   T   T   T
     0.1666666666666643    0.1666666666666643    0.6810539477140253   T   T   T
 
  0.00000000E+00  0.00000000E+00  0.00000000E+00
  0.00000000E+00  0.00000000E+00  0.00000000E+00
  0.00000000E+00  0.00000000E+00  0.00000000E+00
  0.00000000E+00  0.00000000E+00  0.00000000E+00
  0.00000000E+00  0.00000000E+00  0.00000000E+00
  0.00000000E+00  0.00000000E+00  0.00000000E+00
  0.00000000E+00  0.00000000E+00  0.00000000E+00
  0.00000000E+00  0.00000000E+00  0.00000000E+00
  0.00000000E+00  0.00000000E+00  0.00000000E+00
  0.00000000E+00  0.00000000E+00  0.00000000E+00
  0.00000000E+00  0.00000000E+00  0.00000000E+00
  0.00000000E+00  0.00000000E+00  0.00000000E+00
  0.00000000E+00  0.00000000E+00  0.00000000E+00
  0.00000000E+00  0.00000000E+00  0.00000000E+00
  0.00000000E+00  0.00000000E+00  0.00000000E+00
  0.00000000E+00  0.00000000E+00  0.00000000E+00
  0.00000000E+00  0.00000000E+00  0.00000000E+00
  0.00000000E+00  0.00000000E+00  0.00000000E+00
  0.00000000E+00  0.00000000E+00  0.00000000E+00
  0.00000000E+00  0.00000000E+00  0.00000000E+00
  0.00000000E+00  0.00000000E+00  0.00000000E+00
  0.00000000E+00  0.00000000E+00  0.00000000E+00
  0.00000000E+00  0.00000000E+00  0.00000000E+00
  0.00000000E+00  0.00000000E+00  0.00000000E+00
  0.00000000E+00  0.00000000E+00  0.00000000E+00
  0.00000000E+00  0.00000000E+00  0.00000000E+00
  0.00000000E+00  0.00000000E+00  0.00000000E+00
  0.00000000E+00  0.00000000E+00  0.00000000E+00
  0.00000000E+00  0.00000000E+00  0.00000000E+00
  0.00000000E+00  0.00000000E+00  0.00000000E+00
  0.00000000E+00  0.00000000E+00  0.00000000E+00
  0.00000000E+00  0.00000000E+00  0.00000000E+00
  0.00000000E+00  0.00000000E+00  0.00000000E+00
  0.00000000E+00  0.00000000E+00  0.00000000E+00
  0.00000000E+00  0.00000000E+00  0.00000000E+00
  0.00000000E+00  0.00000000E+00  0.00000000E+00
  0.00000000E+00  0.00000000E+00  0.00000000E+00
  0.00000000E+00  0.00000000E+00  0.00000000E+00
