Cu O  C  O  C  O  C  O  C  O  C  O      
    1.000000000000000     
     7.6685730419681093    0.0000000000000000    0.0000000000000000
     0.0000000000000000    7.6685730419681093    0.0000000000000000
     0.0000000000000000    0.0000000000000000   29.4224999999999994
   Cu   O    C    O    C    O    C    O    C    O    C    O 
    36     1     2     1     1     1     1     1     1     1     1     1
Selective dynamics
Direct
     0.1666666666666643    0.1666666666666643    0.4078511343359708   F   F   F
     0.5000000000000000    0.1666666666666643    0.4078511343359708   F   F   F
     0.8333333333333357    0.1666666666666643    0.4078511343359708   F   F   F
     0.1666666666666643    0.5000000000000000    0.4078511343359708   F   F   F
     0.5000000000000000    0.5000000000000000    0.4078511343359708   F   F   F
     0.8333333333333357    0.5000000000000000    0.4078511343359708   F   F   F
     0.1666666666666643    0.8333333333333357    0.4078511343359708   F   F   F
     0.5000000000000000    0.8333333333333357    0.4078511343359708   F   F   F
     0.8333333333333357    0.8333333333333357    0.4078511343359708   F   F   F
     0.0000000000000000    0.0000000000000000    0.4692837114453212   F   F   F
     0.3333333333333357    0.0000000000000000    0.4692837114453212   F   F   F
     0.6666666666666643    0.0000000000000000    0.4692837114453212   F   F   F
     0.0000000000000000    0.3333333333333357    0.4692837114453212   F   F   F
     0.3333333333333357    0.3333333333333357    0.4692837114453212   F   F   F
     0.6666666666666643    0.3333333333333357    0.4692837114453212   F   F   F
     0.0000000000000000    0.6666666666666643    0.4692837114453212   F   F   F
     0.3333333333333357    0.6666666666666643    0.4692837114453212   F   F   F
     0.6666666666666643    0.6666666666666643    0.4692837114453212   F   F   F
     0.1538929226484247    0.1637200248917920    0.5349230263537234   T   T   T
     0.4875230910944755    0.1625579918374918    0.5322699147158998   T   T   T
     0.8287545997624144    0.1745965675191500    0.5344993876100543   T   T   T
     0.1738360376408731    0.4992623169353481    0.5354655637750598   T   T   T
     0.5071084957479880    0.4965771018977398    0.5343573295606897   T   T   T
     0.8485230107442372    0.5016166393638903    0.5343514186055089   T   T   T
     0.1675126804994412    0.8308086152863471    0.5323854138058927   T   T   T
     0.4929725784949875    0.8257769165898488    0.5319467261326857   T   T   T
     0.8420914010721684    0.8402615796614352    0.5314103819079140   T   T   T
     0.9717879375161902    0.0225767715490598    0.6000420464496836   T   T   T
     0.3241091581571659    0.9816088029096290    0.5995653662164205   T   T   T
     0.6493236252277298    0.9959543579217578    0.5900430011513007   T   T   T
     0.9984171608407844    0.3586557801465464    0.6061875345182989   T   T   T
     0.3319558687085954    0.3137751256139307    0.5943146035284365   T   T   T
     0.6656325872082586    0.3350032344713400    0.5970630764012521   T   T   T
     0.0124077768315912    0.6828637845305252    0.6005864762021842   T   T   T
     0.3737672943313012    0.6375047590751484    0.6041706879516964   T   T   T
     0.6871214148421142    0.6724638569506879    0.5917228565959645   T   T   T
     0.0117991292564756    0.3314796328514817    0.6733135194885579   T   T   T
     0.1075871685387167    0.8897861949360090    0.6419287328055128   T   T   T
     0.2294991607435650    0.7751723279610285    0.6437912211127641   T   T   T
     0.9907573338084963    0.3925485350020996    0.7138997413622636   T   T   T
     0.1414090439268896    0.8387516298071679    0.8136494254804384   T   T   T
     0.1254000767451585    0.8342646892205494    0.8524005166414608   T   T   T
     0.4334689904062780    0.1066849398362601    0.7438109615191362   T   T   T
     0.4383550096037160    0.1379599210986346    0.7819874080629101   T   T   T
     0.4520895715480102    0.5475317186707380    0.7455936251458674   T   T   T
     0.4397666073130440    0.5404452462432738    0.7845044438998477   T   T   T
     0.7747322695096991    0.8242571684733957    0.7308550573923334   T   T   T
     0.7662631496132696    0.8405775955544569    0.7695892446546313   T   T   T
 
  0.00000000E+00  0.00000000E+00  0.00000000E+00
  0.00000000E+00  0.00000000E+00  0.00000000E+00
  0.00000000E+00  0.00000000E+00  0.00000000E+00
  0.00000000E+00  0.00000000E+00  0.00000000E+00
  0.00000000E+00  0.00000000E+00  0.00000000E+00
  0.00000000E+00  0.00000000E+00  0.00000000E+00
  0.00000000E+00  0.00000000E+00  0.00000000E+00
  0.00000000E+00  0.00000000E+00  0.00000000E+00
  0.00000000E+00  0.00000000E+00  0.00000000E+00
  0.00000000E+00  0.00000000E+00  0.00000000E+00
  0.00000000E+00  0.00000000E+00  0.00000000E+00
  0.00000000E+00  0.00000000E+00  0.00000000E+00
  0.00000000E+00  0.00000000E+00  0.00000000E+00
  0.00000000E+00  0.00000000E+00  0.00000000E+00
  0.00000000E+00  0.00000000E+00  0.00000000E+00
  0.00000000E+00  0.00000000E+00  0.00000000E+00
  0.00000000E+00  0.00000000E+00  0.00000000E+00
  0.00000000E+00  0.00000000E+00  0.00000000E+00
  0.00000000E+00  0.00000000E+00  0.00000000E+00
  0.00000000E+00  0.00000000E+00  0.00000000E+00
  0.00000000E+00  0.00000000E+00  0.00000000E+00
  0.00000000E+00  0.00000000E+00  0.00000000E+00
  0.00000000E+00  0.00000000E+00  0.00000000E+00
  0.00000000E+00  0.00000000E+00  0.00000000E+00
  0.00000000E+00  0.00000000E+00  0.00000000E+00
  0.00000000E+00  0.00000000E+00  0.00000000E+00
  0.00000000E+00  0.00000000E+00  0.00000000E+00
  0.00000000E+00  0.00000000E+00  0.00000000E+00
  0.00000000E+00  0.00000000E+00  0.00000000E+00
  0.00000000E+00  0.00000000E+00  0.00000000E+00
  0.00000000E+00  0.00000000E+00  0.00000000E+00
  0.00000000E+00  0.00000000E+00  0.00000000E+00
  0.00000000E+00  0.00000000E+00  0.00000000E+00
  0.00000000E+00  0.00000000E+00  0.00000000E+00
  0.00000000E+00  0.00000000E+00  0.00000000E+00
  0.00000000E+00  0.00000000E+00  0.00000000E+00
  0.00000000E+00  0.00000000E+00  0.00000000E+00
  0.00000000E+00  0.00000000E+00  0.00000000E+00
  0.00000000E+00  0.00000000E+00  0.00000000E+00
  0.00000000E+00  0.00000000E+00  0.00000000E+00
  0.00000000E+00  0.00000000E+00  0.00000000E+00
  0.00000000E+00  0.00000000E+00  0.00000000E+00
  0.00000000E+00  0.00000000E+00  0.00000000E+00
  0.00000000E+00  0.00000000E+00  0.00000000E+00
  0.00000000E+00  0.00000000E+00  0.00000000E+00
  0.00000000E+00  0.00000000E+00  0.00000000E+00
  0.00000000E+00  0.00000000E+00  0.00000000E+00
  0.00000000E+00  0.00000000E+00  0.00000000E+00
