SYSTEM = 50% Ag CO adsorption
ENCUT = 400
EDIFF = 1E-5
ISMEAR = 1
SIGMA = 0.1
LREAL = Auto
PREC = Normal
ALGO = Normal
NSW = 300
IBRION = 2
EDIFFG = -0.02
ISIF = 2
IVDW = 12
ISPIN = 1
LORBIT = 11
NCORE = 4
LWAVE = .TRUE.
LCHARG = .TRUE.
