Gamma-centered 3x3x1
0
Gamma
 3 3 1
 0 0 0
