SYSTEM = 50% Au d-band
ENCUT = 400
EDIFF = 1E-5
ISMEAR = -5
LREAL = Auto
PREC = Normal
ALGO = Normal
NSW = 0
IBRION = -1
IVDW = 12
ISPIN = 1
LORBIT = 11
NEDOS = 3001
EMIN = -10
EMAX = 5
NCORE = 4
LWAVE = .FALSE.
LCHARG = .FALSE.
ICHARG = 11
