50% Au Cu(111) slab                     
    1.000000000000000     
    10.2813325984523996    0.0000000000000000    0.0000000000000000
     5.1406662992261998    8.9038952150168509    0.0000000000000000
     0.0000000000000000    0.0000000000000000   36.2960046855128695
   Au   Cu
     8    56
Selective dynamics
Direct
     0.4935178440491021    0.2629643119018025    0.5898776390792734   T   T   T
     0.9935178440491025    0.2629643119018025    0.5898776390792734   T   T   T
     0.2435178440491023    0.2629643119018025    0.5898776390792734   T   T   T
     0.7435178440491025    0.2629643119018025    0.5898776390792734   T   T   T
     0.0071425621801892    0.9857148756396285    0.5899290549632330   T   T   T
     0.2571425621801893    0.9857148756396285    0.5899290549632330   T   T   T
     0.5071425621801892    0.9857148756396285    0.5899290549632330   T   T   T
     0.7571425621801892    0.9857148756396285    0.5899290549632330   T   T   T
     0.6666568729774327    0.6666862540451204    0.5257338490306876   T   T   T
     0.4166568729774327    0.6666862540451204    0.5257338490306876   T   T   T
     0.1666568729774327    0.6666862540451204    0.5257338490306876   T   T   T
     0.9166568729774327    0.6666862540451204    0.5257338490306876   T   T   T
     0.0000000000000000    0.0000000000000000    0.4132686263947676   F   F   F
     0.6659569521928848    0.4180860956142303    0.5262009394886259   T   T   T
     0.4159569521928847    0.4180860956142303    0.5262009394886259   T   T   T
     0.1659569521928848    0.4180860956142303    0.5262009394886259   T   T   T
     0.9159569521928848    0.4180860956142303    0.5262009394886259   T   T   T
     0.6670010050424359    0.1659979899151142    0.5267673722531170   T   T   T
     0.4170010050424358    0.1659979899151142    0.5267673722531170   T   T   T
     0.9174246733567101    0.9151506532865794    0.5260305363499013   T   T   T
     0.1674246733567103    0.9151506532865794    0.5260305363499013   T   T   T
     0.6674246733567101    0.9151506532865794    0.5260305363499013   T   T   T
     0.1670010050424358    0.1659979899151142    0.5267673722531170   T   T   T
     0.9947856406933607    0.5104287186132714    0.5828304218093150   T   T   T
     0.2447856406933609    0.5104287186132714    0.5828304218093150   T   T   T
     0.4947856406933607    0.5104287186132714    0.5828304218093150   T   T   T
     0.7447856406933607    0.5104287186132714    0.5828304218093150   T   T   T
     0.0056279502054487    0.7387440995891026    0.5827030507108054   T   T   T
     0.2556279502054487    0.7387440995891026    0.5827030507108054   T   T   T
     0.4174246733567103    0.9151506532865794    0.5260305363499013   T   T   T
     0.9170010050424359    0.1659979899151142    0.5267673722531170   T   T   T
     0.8333333333333357    0.8333333333333357    0.4710895421315868   F   F   F
     0.5833333333333357    0.8333333333333357    0.4710895421315868   F   F   F
     0.2500000000000000    0.0000000000000000    0.4132686263947676   F   F   F
     0.5000000000000000    0.0000000000000000    0.4132686263947676   F   F   F
     0.7500000000000000    0.0000000000000000    0.4132686263947676   F   F   F
     0.0000000000000000    0.2500000000000000    0.4132686263947676   F   F   F
     0.2500000000000000    0.2500000000000000    0.4132686263947676   F   F   F
     0.5000000000000000    0.2500000000000000    0.4132686263947676   F   F   F
     0.7500000000000000    0.2500000000000000    0.4132686263947676   F   F   F
     0.0000000000000000    0.5000000000000000    0.4132686263947676   F   F   F
     0.2500000000000000    0.5000000000000000    0.4132686263947676   F   F   F
     0.5000000000000000    0.5000000000000000    0.4132686263947676   F   F   F
     0.7500000000000000    0.5000000000000000    0.4132686263947676   F   F   F
     0.0000000000000000    0.7500000000000000    0.4132686263947676   F   F   F
     0.2500000000000000    0.7500000000000000    0.4132686263947676   F   F   F
     0.5000000000000000    0.7500000000000000    0.4132686263947676   F   F   F
     0.7500000000000000    0.7500000000000000    0.4132686263947676   F   F   F
     0.0833333333333357    0.0833333333333357    0.4710895421315868   F   F   F
     0.3333333333333357    0.0833333333333357    0.4710895421315868   F   F   F
     0.5833333333333357    0.0833333333333357    0.4710895421315868   F   F   F
     0.8333333333333357    0.0833333333333357    0.4710895421315868   F   F   F
     0.0833333333333357    0.3333333333333357    0.4710895421315868   F   F   F
     0.3333333333333357    0.3333333333333357    0.4710895421315868   F   F   F
     0.5833333333333357    0.3333333333333357    0.4710895421315868   F   F   F
     0.8333333333333357    0.3333333333333357    0.4710895421315868   F   F   F
     0.0833333333333357    0.5833333333333357    0.4710895421315868   F   F   F
     0.3333333333333357    0.5833333333333357    0.4710895421315868   F   F   F
     0.5833333333333357    0.5833333333333357    0.4710895421315868   F   F   F
     0.8333333333333357    0.5833333333333357    0.4710895421315868   F   F   F
     0.0833333333333357    0.8333333333333357    0.4710895421315868   F   F   F
     0.3333333333333357    0.8333333333333357    0.4710895421315868   F   F   F
     0.5056279502054485    0.7387440995891026    0.5827030507108054   T   T   T
     0.7556279502054485    0.7387440995891026    0.5827030507108054   T   T   T
 
  0.00000000E+00  0.00000000E+00  0.00000000E+00
  0.00000000E+00  0.00000000E+00  0.00000000E+00
  0.00000000E+00  0.00000000E+00  0.00000000E+00
  0.00000000E+00  0.00000000E+00  0.00000000E+00
  0.00000000E+00  0.00000000E+00  0.00000000E+00
  0.00000000E+00  0.00000000E+00  0.00000000E+00
  0.00000000E+00  0.00000000E+00  0.00000000E+00
  0.00000000E+00  0.00000000E+00  0.00000000E+00
  0.00000000E+00  0.00000000E+00  0.00000000E+00
  0.00000000E+00  0.00000000E+00  0.00000000E+00
  0.00000000E+00  0.00000000E+00  0.00000000E+00
  0.00000000E+00  0.00000000E+00  0.00000000E+00
  0.00000000E+00  0.00000000E+00  0.00000000E+00
  0.00000000E+00  0.00000000E+00  0.00000000E+00
  0.00000000E+00  0.00000000E+00  0.00000000E+00
  0.00000000E+00  0.00000000E+00  0.00000000E+00
  0.00000000E+00  0.00000000E+00  0.00000000E+00
  0.00000000E+00  0.00000000E+00  0.00000000E+00
  0.00000000E+00  0.00000000E+00  0.00000000E+00
  0.00000000E+00  0.00000000E+00  0.00000000E+00
  0.00000000E+00  0.00000000E+00  0.00000000E+00
  0.00000000E+00  0.00000000E+00  0.00000000E+00
  0.00000000E+00  0.00000000E+00  0.00000000E+00
  0.00000000E+00  0.00000000E+00  0.00000000E+00
  0.00000000E+00  0.00000000E+00  0.00000000E+00
  0.00000000E+00  0.00000000E+00  0.00000000E+00
  0.00000000E+00  0.00000000E+00  0.00000000E+00
  0.00000000E+00  0.00000000E+00  0.00000000E+00
  0.00000000E+00  0.00000000E+00  0.00000000E+00
  0.00000000E+00  0.00000000E+00  0.00000000E+00
  0.00000000E+00  0.00000000E+00  0.00000000E+00
  0.00000000E+00  0.00000000E+00  0.00000000E+00
  0.00000000E+00  0.00000000E+00  0.00000000E+00
  0.00000000E+00  0.00000000E+00  0.00000000E+00
  0.00000000E+00  0.00000000E+00  0.00000000E+00
  0.00000000E+00  0.00000000E+00  0.00000000E+00
  0.00000000E+00  0.00000000E+00  0.00000000E+00
  0.00000000E+00  0.00000000E+00  0.00000000E+00
  0.00000000E+00  0.00000000E+00  0.00000000E+00
  0.00000000E+00  0.00000000E+00  0.00000000E+00
  0.00000000E+00  0.00000000E+00  0.00000000E+00
  0.00000000E+00  0.00000000E+00  0.00000000E+00
  0.00000000E+00  0.00000000E+00  0.00000000E+00
  0.00000000E+00  0.00000000E+00  0.00000000E+00
  0.00000000E+00  0.00000000E+00  0.00000000E+00
  0.00000000E+00  0.00000000E+00  0.00000000E+00
  0.00000000E+00  0.00000000E+00  0.00000000E+00
  0.00000000E+00  0.00000000E+00  0.00000000E+00
  0.00000000E+00  0.00000000E+00  0.00000000E+00
  0.00000000E+00  0.00000000E+00  0.00000000E+00
  0.00000000E+00  0.00000000E+00  0.00000000E+00
  0.00000000E+00  0.00000000E+00  0.00000000E+00
  0.00000000E+00  0.00000000E+00  0.00000000E+00
  0.00000000E+00  0.00000000E+00  0.00000000E+00
  0.00000000E+00  0.00000000E+00  0.00000000E+00
  0.00000000E+00  0.00000000E+00  0.00000000E+00
  0.00000000E+00  0.00000000E+00  0.00000000E+00
  0.00000000E+00  0.00000000E+00  0.00000000E+00
  0.00000000E+00  0.00000000E+00  0.00000000E+00
  0.00000000E+00  0.00000000E+00  0.00000000E+00
  0.00000000E+00  0.00000000E+00  0.00000000E+00
  0.00000000E+00  0.00000000E+00  0.00000000E+00
  0.00000000E+00  0.00000000E+00  0.00000000E+00
  0.00000000E+00  0.00000000E+00  0.00000000E+00
