50% Au + CO                             
    1.000000000000000     
    10.2813325984523996    0.0000000000000000    0.0000000000000000
     5.1406662992261998    8.9038952150168509    0.0000000000000000
     0.0000000000000000    0.0000000000000000   36.2960046855128695
   Au   Cu   C    O 
     8    56     1     1
Selective dynamics
Direct
     0.4944984620613369    0.2614300686644171    0.5896370200915726   T   T   T
     0.9940949084764270    0.2612424672577021    0.5895393506379705   T   T   T
     0.2446626242658638    0.2612424672577021    0.5895393506379705   T   T   T
     0.7440714692742532    0.2614300686644171    0.5896370200915726   T   T   T
     0.0075671760743674    0.9852535476359208    0.5904955323543390   T   T   T
     0.2573699625242156    0.9852600749515830    0.5901005016647929   T   T   T
     0.5071792762897260    0.9852535476359208    0.5904955323543390   T   T   T
     0.7573929292526458    0.9852141414947226    0.5887018625104616   T   T   T
     0.6665978245607391    0.6656931115078066    0.5254038020861671   T   T   T
     0.4172468698431757    0.6655062603136273    0.5256453051149492   T   T   T
     0.1677090639314329    0.6656931115078066    0.5254038020861671   T   T   T
     0.9176833199773000    0.6646333600453929    0.5254384081702810   T   T   T
     0.0000000000000000    0.0000000000000000    0.4132686263947676   F   F   F
     0.6669554103482369    0.4162322411204258    0.5256254848538191   T   T   T
     0.4168123485313444    0.4162322411204258    0.5256254848538191   T   T   T
     0.1633151299115738    0.4191396146920923    0.5268481303504657   T   T   T
     0.9175452553963339    0.4191396146920923    0.5268481303504657   T   T   T
     0.6670871751125844    0.1658256497748170    0.5261508364589318   T   T   T
     0.4170013629741192    0.1653886588343241    0.5266735374064950   T   T   T
     0.9180097760367119    0.9142128339201889    0.5257778694619404   T   T   T
     0.1676581284634864    0.9148622119228591    0.5261952144160063   T   T   T
     0.6677773900431063    0.9142128339201889    0.5257778694619404   T   T   T
     0.1672364607267554    0.1655270785464680    0.5266299369003065   T   T   T
     0.9945205917790929    0.5109588164418000    0.5852619938820141   T   T   T
     0.2490328734870886    0.5089177225404242    0.5814191677687717   T   T   T
     0.4955425912890092    0.5089148174219815    0.5824049422673809   T   T   T
     0.7420494039724730    0.5089177225404242    0.5814191677687717   T   T   T
     0.0087809609814187    0.7391528736264164    0.5814465521303092   T   T   T
     0.2571834945898601    0.7385437493302192    0.5826595064869835   T   T   T
     0.4174796596136687    0.9148622119228591    0.5261952144160063   T   T   T
     0.9176099781915354    0.1653886588343241    0.5266735374064950   T   T   T
     0.8333333333333357    0.8333333333333357    0.4710895421315868   F   F   F
     0.5833333333333357    0.8333333333333357    0.4710895421315868   F   F   F
     0.2500000000000000    0.0000000000000000    0.4132686263947676   F   F   F
     0.5000000000000000    0.0000000000000000    0.4132686263947676   F   F   F
     0.7500000000000000    0.0000000000000000    0.4132686263947676   F   F   F
     0.0000000000000000    0.2500000000000000    0.4132686263947676   F   F   F
     0.2500000000000000    0.2500000000000000    0.4132686263947676   F   F   F
     0.5000000000000000    0.2500000000000000    0.4132686263947676   F   F   F
     0.7500000000000000    0.2500000000000000    0.4132686263947676   F   F   F
     0.0000000000000000    0.5000000000000000    0.4132686263947676   F   F   F
     0.2500000000000000    0.5000000000000000    0.4132686263947676   F   F   F
     0.5000000000000000    0.5000000000000000    0.4132686263947676   F   F   F
     0.7500000000000000    0.5000000000000000    0.4132686263947676   F   F   F
     0.0000000000000000    0.7500000000000000    0.4132686263947676   F   F   F
     0.2500000000000000    0.7500000000000000    0.4132686263947676   F   F   F
     0.5000000000000000    0.7500000000000000    0.4132686263947676   F   F   F
     0.7500000000000000    0.7500000000000000    0.4132686263947676   F   F   F
     0.0833333333333357    0.0833333333333357    0.4710895421315868   F   F   F
     0.3333333333333357    0.0833333333333357    0.4710895421315868   F   F   F
     0.5833333333333357    0.0833333333333357    0.4710895421315868   F   F   F
     0.8333333333333357    0.0833333333333357    0.4710895421315868   F   F   F
     0.0833333333333357    0.3333333333333357    0.4710895421315868   F   F   F
     0.3333333333333357    0.3333333333333357    0.4710895421315868   F   F   F
     0.5833333333333357    0.3333333333333357    0.4710895421315868   F   F   F
     0.8333333333333357    0.3333333333333357    0.4710895421315868   F   F   F
     0.0833333333333357    0.5833333333333357    0.4710895421315868   F   F   F
     0.3333333333333357    0.5833333333333357    0.4710895421315868   F   F   F
     0.5833333333333357    0.5833333333333357    0.4710895421315868   F   F   F
     0.8333333333333357    0.5833333333333357    0.4710895421315868   F   F   F
     0.0833333333333357    0.8333333333333357    0.4710895421315868   F   F   F
     0.3333333333333357    0.8333333333333357    0.4710895421315868   F   F   F
     0.5042727560799207    0.7385437493302192    0.5826595064869835   T   T   T
     0.7520661653921650    0.7391528736264164    0.5814465521303092   T   T   T
     0.9441062104844491    0.6117875790310805    0.6304799557852760   T   T   T
     0.9262382618534346    0.6475234762931237    0.6612729909450010   T   T   T
 
  0.00000000E+00  0.00000000E+00  0.00000000E+00
  0.00000000E+00  0.00000000E+00  0.00000000E+00
  0.00000000E+00  0.00000000E+00  0.00000000E+00
  0.00000000E+00  0.00000000E+00  0.00000000E+00
  0.00000000E+00  0.00000000E+00  0.00000000E+00
  0.00000000E+00  0.00000000E+00  0.00000000E+00
  0.00000000E+00  0.00000000E+00  0.00000000E+00
  0.00000000E+00  0.00000000E+00  0.00000000E+00
  0.00000000E+00  0.00000000E+00  0.00000000E+00
  0.00000000E+00  0.00000000E+00  0.00000000E+00
  0.00000000E+00  0.00000000E+00  0.00000000E+00
  0.00000000E+00  0.00000000E+00  0.00000000E+00
  0.00000000E+00  0.00000000E+00  0.00000000E+00
  0.00000000E+00  0.00000000E+00  0.00000000E+00
  0.00000000E+00  0.00000000E+00  0.00000000E+00
  0.00000000E+00  0.00000000E+00  0.00000000E+00
  0.00000000E+00  0.00000000E+00  0.00000000E+00
  0.00000000E+00  0.00000000E+00  0.00000000E+00
  0.00000000E+00  0.00000000E+00  0.00000000E+00
  0.00000000E+00  0.00000000E+00  0.00000000E+00
  0.00000000E+00  0.00000000E+00  0.00000000E+00
  0.00000000E+00  0.00000000E+00  0.00000000E+00
  0.00000000E+00  0.00000000E+00  0.00000000E+00
  0.00000000E+00  0.00000000E+00  0.00000000E+00
  0.00000000E+00  0.00000000E+00  0.00000000E+00
  0.00000000E+00  0.00000000E+00  0.00000000E+00
  0.00000000E+00  0.00000000E+00  0.00000000E+00
  0.00000000E+00  0.00000000E+00  0.00000000E+00
  0.00000000E+00  0.00000000E+00  0.00000000E+00
  0.00000000E+00  0.00000000E+00  0.00000000E+00
  0.00000000E+00  0.00000000E+00  0.00000000E+00
  0.00000000E+00  0.00000000E+00  0.00000000E+00
  0.00000000E+00  0.00000000E+00  0.00000000E+00
  0.00000000E+00  0.00000000E+00  0.00000000E+00
  0.00000000E+00  0.00000000E+00  0.00000000E+00
  0.00000000E+00  0.00000000E+00  0.00000000E+00
  0.00000000E+00  0.00000000E+00  0.00000000E+00
  0.00000000E+00  0.00000000E+00  0.00000000E+00
  0.00000000E+00  0.00000000E+00  0.00000000E+00
  0.00000000E+00  0.00000000E+00  0.00000000E+00
  0.00000000E+00  0.00000000E+00  0.00000000E+00
  0.00000000E+00  0.00000000E+00  0.00000000E+00
  0.00000000E+00  0.00000000E+00  0.00000000E+00
  0.00000000E+00  0.00000000E+00  0.00000000E+00
  0.00000000E+00  0.00000000E+00  0.00000000E+00
  0.00000000E+00  0.00000000E+00  0.00000000E+00
  0.00000000E+00  0.00000000E+00  0.00000000E+00
  0.00000000E+00  0.00000000E+00  0.00000000E+00
  0.00000000E+00  0.00000000E+00  0.00000000E+00
  0.00000000E+00  0.00000000E+00  0.00000000E+00
  0.00000000E+00  0.00000000E+00  0.00000000E+00
  0.00000000E+00  0.00000000E+00  0.00000000E+00
  0.00000000E+00  0.00000000E+00  0.00000000E+00
  0.00000000E+00  0.00000000E+00  0.00000000E+00
  0.00000000E+00  0.00000000E+00  0.00000000E+00
  0.00000000E+00  0.00000000E+00  0.00000000E+00
  0.00000000E+00  0.00000000E+00  0.00000000E+00
  0.00000000E+00  0.00000000E+00  0.00000000E+00
  0.00000000E+00  0.00000000E+00  0.00000000E+00
  0.00000000E+00  0.00000000E+00  0.00000000E+00
  0.00000000E+00  0.00000000E+00  0.00000000E+00
  0.00000000E+00  0.00000000E+00  0.00000000E+00
  0.00000000E+00  0.00000000E+00  0.00000000E+00
  0.00000000E+00  0.00000000E+00  0.00000000E+00
  0.00000000E+00  0.00000000E+00  0.00000000E+00
  0.00000000E+00  0.00000000E+00  0.00000000E+00
