50% Au + CO                             
    1.000000000000000     
    10.2813325984523996    0.0000000000000000    0.0000000000000000
     5.1406662992261998    8.9038952150168509    0.0000000000000000
     0.0000000000000000    0.0000000000000000   36.2960046855128695
   Au   Cu   C    O 
     8    56     1     1
Selective dynamics
Direct
     0.4944984620613347    0.2614300686644196    0.5896370200915698   T   T   T
     0.9940949084764289    0.2612424672577046    0.5895393506379688   T   T   T
     0.2446626242658663    0.2612424672577046    0.5895393506379688   T   T   T
     0.7440714692742533    0.2614300686644196    0.5896370200915698   T   T   T
     0.0075671760743698    0.9852535476359204    0.5904955323543415   T   T   T
     0.2573699625242171    0.9852600749515801    0.5901005016647911   T   T   T
     0.5071792762897247    0.9852535476359204    0.5904955323543415   T   T   T
     0.7573929292526462    0.9852141414947225    0.5887018625104651   T   T   T
     0.6665978245607420    0.6656931115078095    0.5254038020861679   T   T   T
     0.4172468698431742    0.6655062603136302    0.5256453051149482   T   T   T
     0.1677090639314337    0.6656931115078095    0.5254038020861679   T   T   T
     0.9176833199772970    0.6646333600453901    0.5254384081702833   T   T   T
     0.0000000000000000    0.0000000000000000    0.4132686263947676   F   F   F
     0.6669554103482336    0.4162322411204247    0.5256254848538227   T   T   T
     0.4168123485313424    0.4162322411204247    0.5256254848538227   T   T   T
     0.1633151299115759    0.4191396146920898    0.5268481303504630   T   T   T
     0.9175452553963339    0.4191396146920898    0.5268481303504630   T   T   T
     0.6670871751125810    0.1658256497748175    0.5261508364589342   T   T   T
     0.4170013629741222    0.1653886588343250    0.5266735374064958   T   T   T
     0.9180097760367101    0.9142128339201900    0.5257778694619424   T   T   T
     0.1676581284634872    0.9148622119228569    0.5261952144160079   T   T   T
     0.6677773900431069    0.9142128339201900    0.5257778694619424   T   T   T
     0.1672364607267539    0.1655270785464710    0.5266299369003096   T   T   T
     0.9945205917790932    0.5109588164417970    0.5852619938820111   T   T   T
     0.2490328734870911    0.5089177225404251    0.5814191677687702   T   T   T
     0.4955425912890075    0.5089148174219780    0.5824049422673794   T   T   T
     0.7420494039724708    0.5089177225404251    0.5814191677687702   T   T   T
     0.0087809609814185    0.7391528736264189    0.5814465521303103   T   T   T
     0.2571834945898626    0.7385437493302212    0.5826595064869804   T   T   T
     0.4174796596136700    0.9148622119228569    0.5261952144160079   T   T   T
     0.9176099781915376    0.1653886588343250    0.5266735374064958   T   T   T
     0.8333333333333357    0.8333333333333357    0.4710895421315868   F   F   F
     0.5833333333333357    0.8333333333333357    0.4710895421315868   F   F   F
     0.2500000000000000    0.0000000000000000    0.4132686263947676   F   F   F
     0.5000000000000000    0.0000000000000000    0.4132686263947676   F   F   F
     0.7500000000000000    0.0000000000000000    0.4132686263947676   F   F   F
     0.0000000000000000    0.2500000000000000    0.4132686263947676   F   F   F
     0.2500000000000000    0.2500000000000000    0.4132686263947676   F   F   F
     0.5000000000000000    0.2500000000000000    0.4132686263947676   F   F   F
     0.7500000000000000    0.2500000000000000    0.4132686263947676   F   F   F
     0.0000000000000000    0.5000000000000000    0.4132686263947676   F   F   F
     0.2500000000000000    0.5000000000000000    0.4132686263947676   F   F   F
     0.5000000000000000    0.5000000000000000    0.4132686263947676   F   F   F
     0.7500000000000000    0.5000000000000000    0.4132686263947676   F   F   F
     0.0000000000000000    0.7500000000000000    0.4132686263947676   F   F   F
     0.2500000000000000    0.7500000000000000    0.4132686263947676   F   F   F
     0.5000000000000000    0.7500000000000000    0.4132686263947676   F   F   F
     0.7500000000000000    0.7500000000000000    0.4132686263947676   F   F   F
     0.0833333333333357    0.0833333333333357    0.4710895421315868   F   F   F
     0.3333333333333357    0.0833333333333357    0.4710895421315868   F   F   F
     0.5833333333333357    0.0833333333333357    0.4710895421315868   F   F   F
     0.8333333333333357    0.0833333333333357    0.4710895421315868   F   F   F
     0.0833333333333357    0.3333333333333357    0.4710895421315868   F   F   F
     0.3333333333333357    0.3333333333333357    0.4710895421315868   F   F   F
     0.5833333333333357    0.3333333333333357    0.4710895421315868   F   F   F
     0.8333333333333357    0.3333333333333357    0.4710895421315868   F   F   F
     0.0833333333333357    0.5833333333333357    0.4710895421315868   F   F   F
     0.3333333333333357    0.5833333333333357    0.4710895421315868   F   F   F
     0.5833333333333357    0.5833333333333357    0.4710895421315868   F   F   F
     0.8333333333333357    0.5833333333333357    0.4710895421315868   F   F   F
     0.0833333333333357    0.8333333333333357    0.4710895421315868   F   F   F
     0.3333333333333357    0.8333333333333357    0.4710895421315868   F   F   F
     0.5042727560799216    0.7385437493302212    0.5826595064869804   T   T   T
     0.7520661653921630    0.7391528736264189    0.5814465521303103   T   T   T
     0.9441062104844511    0.6117875790310772    0.6304799557852783   T   T   T
     0.9262382618534317    0.6475234762931207    0.6612729909450035   T   T   T
 
  0.00000000E+00  0.00000000E+00  0.00000000E+00
  0.00000000E+00  0.00000000E+00  0.00000000E+00
  0.00000000E+00  0.00000000E+00  0.00000000E+00
  0.00000000E+00  0.00000000E+00  0.00000000E+00
  0.00000000E+00  0.00000000E+00  0.00000000E+00
  0.00000000E+00  0.00000000E+00  0.00000000E+00
  0.00000000E+00  0.00000000E+00  0.00000000E+00
  0.00000000E+00  0.00000000E+00  0.00000000E+00
  0.00000000E+00  0.00000000E+00  0.00000000E+00
  0.00000000E+00  0.00000000E+00  0.00000000E+00
  0.00000000E+00  0.00000000E+00  0.00000000E+00
  0.00000000E+00  0.00000000E+00  0.00000000E+00
  0.00000000E+00  0.00000000E+00  0.00000000E+00
  0.00000000E+00  0.00000000E+00  0.00000000E+00
  0.00000000E+00  0.00000000E+00  0.00000000E+00
  0.00000000E+00  0.00000000E+00  0.00000000E+00
  0.00000000E+00  0.00000000E+00  0.00000000E+00
  0.00000000E+00  0.00000000E+00  0.00000000E+00
  0.00000000E+00  0.00000000E+00  0.00000000E+00
  0.00000000E+00  0.00000000E+00  0.00000000E+00
  0.00000000E+00  0.00000000E+00  0.00000000E+00
  0.00000000E+00  0.00000000E+00  0.00000000E+00
  0.00000000E+00  0.00000000E+00  0.00000000E+00
  0.00000000E+00  0.00000000E+00  0.00000000E+00
  0.00000000E+00  0.00000000E+00  0.00000000E+00
  0.00000000E+00  0.00000000E+00  0.00000000E+00
  0.00000000E+00  0.00000000E+00  0.00000000E+00
  0.00000000E+00  0.00000000E+00  0.00000000E+00
  0.00000000E+00  0.00000000E+00  0.00000000E+00
  0.00000000E+00  0.00000000E+00  0.00000000E+00
  0.00000000E+00  0.00000000E+00  0.00000000E+00
  0.00000000E+00  0.00000000E+00  0.00000000E+00
  0.00000000E+00  0.00000000E+00  0.00000000E+00
  0.00000000E+00  0.00000000E+00  0.00000000E+00
  0.00000000E+00  0.00000000E+00  0.00000000E+00
  0.00000000E+00  0.00000000E+00  0.00000000E+00
  0.00000000E+00  0.00000000E+00  0.00000000E+00
  0.00000000E+00  0.00000000E+00  0.00000000E+00
  0.00000000E+00  0.00000000E+00  0.00000000E+00
  0.00000000E+00  0.00000000E+00  0.00000000E+00
  0.00000000E+00  0.00000000E+00  0.00000000E+00
  0.00000000E+00  0.00000000E+00  0.00000000E+00
  0.00000000E+00  0.00000000E+00  0.00000000E+00
  0.00000000E+00  0.00000000E+00  0.00000000E+00
  0.00000000E+00  0.00000000E+00  0.00000000E+00
  0.00000000E+00  0.00000000E+00  0.00000000E+00
  0.00000000E+00  0.00000000E+00  0.00000000E+00
  0.00000000E+00  0.00000000E+00  0.00000000E+00
  0.00000000E+00  0.00000000E+00  0.00000000E+00
  0.00000000E+00  0.00000000E+00  0.00000000E+00
  0.00000000E+00  0.00000000E+00  0.00000000E+00
  0.00000000E+00  0.00000000E+00  0.00000000E+00
  0.00000000E+00  0.00000000E+00  0.00000000E+00
  0.00000000E+00  0.00000000E+00  0.00000000E+00
  0.00000000E+00  0.00000000E+00  0.00000000E+00
  0.00000000E+00  0.00000000E+00  0.00000000E+00
  0.00000000E+00  0.00000000E+00  0.00000000E+00
  0.00000000E+00  0.00000000E+00  0.00000000E+00
  0.00000000E+00  0.00000000E+00  0.00000000E+00
  0.00000000E+00  0.00000000E+00  0.00000000E+00
  0.00000000E+00  0.00000000E+00  0.00000000E+00
  0.00000000E+00  0.00000000E+00  0.00000000E+00
  0.00000000E+00  0.00000000E+00  0.00000000E+00
  0.00000000E+00  0.00000000E+00  0.00000000E+00
  0.00000000E+00  0.00000000E+00  0.00000000E+00
  0.00000000E+00  0.00000000E+00  0.00000000E+00
