Cu Ag Cu Ag Cu Ag Cu Ag Cu Ag Cu Ag Cu A
    1.000000000000000     
    10.8894444302728335    0.0000000000000000    0.0000000000000000
     2.7223611075682084    4.7152677548576172    0.0000000000000000
     0.0000000000000000    0.0000000000000000   30.6683956091401768
   Cu   Ag   Cu   Ag   Cu   Ag   Cu   Ag   Cu   Ag   Cu   Ag   Cu   Ag   Cu   Ag
     3     1     2     2     2     2     2     2     3     1     2     2     3     1     2     2
Selective dynamics
Direct
     0.0000000000000000    0.0000000000000000    0.3912822878945619   F   F   F
     0.2500000000000000    0.0000000000000000    0.3912822878945619   F   F   F
     0.5000000000000000    0.0000000000000000    0.3912822878945619   F   F   F
     0.7500000000000000    0.0000000000000000    0.3912822878945619   F   F   F
     0.0000000000000000    0.5000000000000000    0.3912822878945619   F   F   F
     0.2500000000000000    0.5000000000000000    0.3912822878945619   F   F   F
     0.5000000000000000    0.5000000000000000    0.3912822878945619   F   F   F
     0.7500000000000000    0.5000000000000000    0.3912822878945619   F   F   F
     0.0833333333333357    0.1666666666666643    0.4637607626315230   F   F   F
     0.3333333333333357    0.1666666666666643    0.4637607626315230   F   F   F
     0.5833333333333357    0.1666666666666643    0.4637607626315230   F   F   F
     0.8333333333333357    0.1666666666666643    0.4637607626315230   F   F   F
     0.0833333333333357    0.6666666666666643    0.4637607626315230   F   F   F
     0.3333333333333357    0.6666666666666643    0.4637607626315230   F   F   F
     0.5833333333333357    0.6666666666666643    0.4637607626315230   F   F   F
     0.8333333333333357    0.6666666666666643    0.4637607626315230   F   F   F
     0.9369924644976402    0.3127991156364588    0.5363077733737606   T   T   T
     0.1643440329112476    0.3392027245735540    0.5315220707094380   T   T   T
     0.4046054887945050    0.3411423165113103    0.5354333319245532   T   T   T
     0.6794506221485184    0.3170480604008430    0.5454124054069166   T   T   T
     0.9350431435075024    0.8146360981204355    0.5361242618933849   T   T   T
     0.1643532505750806    0.8303930761998801    0.5317423033373917   T   T   T
     0.4088866790146267    0.8371503806631240    0.5375582990331842   T   T   T
     0.6782762640371178    0.8213221890873035    0.5453133471988713   T   T   T
     0.0059451510422158    0.9929298282280679    0.6033444631421510   T   T   T
     0.2295407365745461    0.0277160255769287    0.6037936075443994   T   T   T
     0.4743714339298886    0.0368015295034370    0.6098752123693344   T   T   T
     0.7575916289663736    0.9925333308287325    0.6256715425112631   T   T   T
     0.0040592615838691    0.4997726005956218    0.6033184874950249   T   T   T
     0.2358811331736545    0.5119099222055330    0.6010117246748206   T   T   T
     0.4787251316931139    0.5250655083973346    0.6195117849430398   T   T   T
     0.7597156256545232    0.4923503853741670    0.6250036037206710   T   T   T
 
  0.00000000E+00  0.00000000E+00  0.00000000E+00
  0.00000000E+00  0.00000000E+00  0.00000000E+00
  0.00000000E+00  0.00000000E+00  0.00000000E+00
  0.00000000E+00  0.00000000E+00  0.00000000E+00
  0.00000000E+00  0.00000000E+00  0.00000000E+00
  0.00000000E+00  0.00000000E+00  0.00000000E+00
  0.00000000E+00  0.00000000E+00  0.00000000E+00
  0.00000000E+00  0.00000000E+00  0.00000000E+00
  0.00000000E+00  0.00000000E+00  0.00000000E+00
  0.00000000E+00  0.00000000E+00  0.00000000E+00
  0.00000000E+00  0.00000000E+00  0.00000000E+00
  0.00000000E+00  0.00000000E+00  0.00000000E+00
  0.00000000E+00  0.00000000E+00  0.00000000E+00
  0.00000000E+00  0.00000000E+00  0.00000000E+00
  0.00000000E+00  0.00000000E+00  0.00000000E+00
  0.00000000E+00  0.00000000E+00  0.00000000E+00
  0.00000000E+00  0.00000000E+00  0.00000000E+00
  0.00000000E+00  0.00000000E+00  0.00000000E+00
  0.00000000E+00  0.00000000E+00  0.00000000E+00
  0.00000000E+00  0.00000000E+00  0.00000000E+00
  0.00000000E+00  0.00000000E+00  0.00000000E+00
  0.00000000E+00  0.00000000E+00  0.00000000E+00
  0.00000000E+00  0.00000000E+00  0.00000000E+00
  0.00000000E+00  0.00000000E+00  0.00000000E+00
  0.00000000E+00  0.00000000E+00  0.00000000E+00
  0.00000000E+00  0.00000000E+00  0.00000000E+00
  0.00000000E+00  0.00000000E+00  0.00000000E+00
  0.00000000E+00  0.00000000E+00  0.00000000E+00
  0.00000000E+00  0.00000000E+00  0.00000000E+00
  0.00000000E+00  0.00000000E+00  0.00000000E+00
  0.00000000E+00  0.00000000E+00  0.00000000E+00
  0.00000000E+00  0.00000000E+00  0.00000000E+00
