Cu Ag Cu Ag Cu Ag Cu Ag Cu Ag Cu Ag Cu Ag Cu Ag C  O 
 1.0000000000000000
    10.8894444302728335    0.0000000000000000    0.0000000000000000
     2.7223611075682084    4.7152677548576172    0.0000000000000000
     0.0000000000000000    0.0000000000000000   30.6683956091401768
 Cu  Ag  Cu  Ag  Cu  Ag  Cu  Ag  Cu  Ag  Cu  Ag  Cu  Ag  Cu  Ag
   3   1   2   2   2   2   2   2   3   1   2   2   3   1   2   2
Selective dynamics
Cartesian
  0.0000000000000000  0.0000000000000000 12.0000000000000000   F   F   F
  2.7223611075682084  0.0000000000000000 12.0000000000000000   F   F   F
  5.4447222151364167  0.0000000000000000 12.0000000000000000   F   F   F
  8.1670833227046256  0.0000000000000000 12.0000000000000000   F   F   F
  1.3611805537841042  2.3576338774288086 12.0000000000000000   F   F   F
  4.0835416613523128  2.3576338774288086 12.0000000000000000   F   F   F
  6.8059027689205207  2.3576338774288086 12.0000000000000000   F   F   F
  9.5282638764887295  2.3576338774288086 12.0000000000000000   F   F   F
  1.3611805537841040  0.7858779591429361 14.2227985363800595   F   F   F
  4.0835416613523119  0.7858779591429361 14.2227985363800595   F   F   F
  6.8059027689205207  0.7858779591429361 14.2227985363800595   F   F   F
  9.5282638764887295  0.7858779591429361 14.2227985363800595   F   F   F
  2.7223611075682079  3.1435118365717445 14.2227985363800595   F   F   F
  5.4447222151364159  3.1435118365717445 14.2227985363800595   F   F   F
  8.1670833227046256  3.1435118365717445 14.2227985363800595   F   F   F
 10.8894444302728335  3.1435118365717445 14.2227985363800595   F   F   F
  0.0000000000000000  1.5717559182858722 16.4455970727601191   T   T   T
  2.7223611075682088  1.5717559182858722 16.4455970727601191   T   T   T
  5.4447222151364167  1.5717559182858722 16.4455970727601191   T   T   T
  8.1670833227046238  1.5717559182858722 16.4455970727601191   T   T   T
  1.3611805537841042  3.9293897957146808 16.4455970727601191   T   T   T
  4.0835416613523128  3.9293897957146808 16.4455970727601191   T   T   T
  6.8059027689205207  3.9293897957146808 16.4455970727601191   T   T   T
  9.5282638764887295  3.9293897957146808 16.4455970727601191   T   T   T
  0.0000000000000000  0.0000000000000000 18.6683956091401768   T   T   T
  2.7223611075682084  0.0000000000000000 18.6683956091401768   T   T   T
  5.4447222151364167  0.0000000000000000 18.6683956091401768   T   T   T
  8.1670833227046256  0.0000000000000000 18.6683956091401768   T   T   T
  1.3611805537841042  2.3576338774288086 18.6683956091401768   T   T   T
  4.0835416613523128  2.3576338774288086 18.6683956091401768   T   T   T
  6.8059027689205207  2.3576338774288086 18.6683956091401768   T   T   T
  9.5282638764887295  2.3576338774288086 18.6683956091401768   T   T   T
