Cu O  C  O  C  O  C  O  C  O  C  O  C  O
    1.000000000000000     
     7.6685730419681093    0.0000000000000000    0.0000000000000000
     0.0000000000000000    7.6685730419681093    0.0000000000000000
     0.0000000000000000    0.0000000000000000   29.4224999999999994
   Cu   O    C    O    C    O    C    O    C    O    C    O    C    O    C    O 
    36     1     2     1     1     1     1     1     1     1     1     1     1     1     1     1
Selective dynamics
Direct
     0.1666666666666643    0.1666666666666643    0.4078511343359708   F   F   F
     0.5000000000000000    0.1666666666666643    0.4078511343359708   F   F   F
     0.8333333333333357    0.1666666666666643    0.4078511343359708   F   F   F
     0.1666666666666643    0.5000000000000000    0.4078511343359708   F   F   F
     0.5000000000000000    0.5000000000000000    0.4078511343359708   F   F   F
     0.8333333333333357    0.5000000000000000    0.4078511343359708   F   F   F
     0.1666666666666643    0.8333333333333357    0.4078511343359708   F   F   F
     0.5000000000000000    0.8333333333333357    0.4078511343359708   F   F   F
     0.8333333333333357    0.8333333333333357    0.4078511343359708   F   F   F
     0.0000000000000000    0.0000000000000000    0.4692837114453212   F   F   F
     0.3333333333333357    0.0000000000000000    0.4692837114453212   F   F   F
     0.6666666666666643    0.0000000000000000    0.4692837114453212   F   F   F
     0.0000000000000000    0.3333333333333357    0.4692837114453212   F   F   F
     0.3333333333333357    0.3333333333333357    0.4692837114453212   F   F   F
     0.6666666666666643    0.3333333333333357    0.4692837114453212   F   F   F
     0.0000000000000000    0.6666666666666643    0.4692837114453212   F   F   F
     0.3333333333333357    0.6666666666666643    0.4692837114453212   F   F   F
     0.6666666666666643    0.6666666666666643    0.4692837114453212   F   F   F
     0.1610706382780208    0.1693127398608120    0.5331338728965525   T   T   T
     0.4857733457885901    0.1640805815458586    0.5347425408775567   T   T   T
     0.8225041192144247    0.1724509869680474    0.5323171460294885   T   T   T
     0.1805923106893387    0.5066424750441260    0.5340065343200165   T   T   T
     0.5044821156806854    0.4967870973951423    0.5349602912628544   T   T   T
     0.8410593572155504    0.5092701351337028    0.5312706931900740   T   T   T
     0.1635822759154069    0.8369417302314673    0.5294678948893100   T   T   T
     0.4945461158595738    0.8277278768011583    0.5337902953745455   T   T   T
     0.8365875649995294    0.8431739652724592    0.5337598834627735   T   T   T
     0.9582788485238836    0.0340767062661804    0.6008261338941717   T   T   T
     0.3139381625662681    0.9892183468949395    0.5975646927678203   T   T   T
     0.6423686939908090    0.9974025008952870    0.5942777269743379   T   T   T
     0.0031885878448743    0.3490313448369785    0.5944839726006884   T   T   T
     0.3291833237239486    0.3157603895215102    0.6037677295190750   T   T   T
     0.6581052985330637    0.3319640600638622    0.5957217902888795   T   T   T
     0.0217519233322651    0.6786788874564437    0.5968712070095405   T   T   T
     0.3708059172267996    0.6431908942248122    0.6035203200332405   T   T   T
     0.6895047796106887    0.6674215536382427    0.5930061060384180   T   T   T
     0.2342057077495628    0.3035129110372043    0.6649405907212195   T   T   T
     0.0978729418775750    0.8964461369574913    0.6393884010900739   T   T   T
     0.2233322775401335    0.7857171326063042    0.6395977902765365   T   T   T
     0.0585476056920666    0.3126388989247579    0.6610405098627975   T   T   T
     0.1406284378564217    0.8345639082864404    0.8116024157866367   T   T   T
     0.1209699435857708    0.8375844199024288    0.8502682597099274   T   T   T
     0.4057918144750240    0.1442390489274453    0.7576701448858392   T   T   T
     0.3808184186777033    0.1308627561362413    0.7959988768242510   T   T   T
     0.3845132208604686    0.5195554120102638    0.7567661082552742   T   T   T
     0.3907743666711156    0.5357055178335003    0.7955468009620055   T   T   T
     0.6331552537893965    0.8340913476671554    0.7305384116558558   T   T   T
     0.6331937858947689    0.8311032498035025    0.7694507980639610   T   T   T
     0.8866880897401652    0.1355342391748156    0.7474216753022733   T   T   T
     0.9097438391942992    0.1358258326643518    0.7859922774486288   T   T   T
     0.8862962990057613    0.5343239748714090    0.7474442974875787   T   T   T
     0.9183252912293517    0.5291319032349466    0.7855177599318736   T   T   T
 
  0.00000000E+00  0.00000000E+00  0.00000000E+00
  0.00000000E+00  0.00000000E+00  0.00000000E+00
  0.00000000E+00  0.00000000E+00  0.00000000E+00
  0.00000000E+00  0.00000000E+00  0.00000000E+00
  0.00000000E+00  0.00000000E+00  0.00000000E+00
  0.00000000E+00  0.00000000E+00  0.00000000E+00
  0.00000000E+00  0.00000000E+00  0.00000000E+00
  0.00000000E+00  0.00000000E+00  0.00000000E+00
  0.00000000E+00  0.00000000E+00  0.00000000E+00
  0.00000000E+00  0.00000000E+00  0.00000000E+00
  0.00000000E+00  0.00000000E+00  0.00000000E+00
  0.00000000E+00  0.00000000E+00  0.00000000E+00
  0.00000000E+00  0.00000000E+00  0.00000000E+00
  0.00000000E+00  0.00000000E+00  0.00000000E+00
  0.00000000E+00  0.00000000E+00  0.00000000E+00
  0.00000000E+00  0.00000000E+00  0.00000000E+00
  0.00000000E+00  0.00000000E+00  0.00000000E+00
  0.00000000E+00  0.00000000E+00  0.00000000E+00
  0.00000000E+00  0.00000000E+00  0.00000000E+00
  0.00000000E+00  0.00000000E+00  0.00000000E+00
  0.00000000E+00  0.00000000E+00  0.00000000E+00
  0.00000000E+00  0.00000000E+00  0.00000000E+00
  0.00000000E+00  0.00000000E+00  0.00000000E+00
  0.00000000E+00  0.00000000E+00  0.00000000E+00
  0.00000000E+00  0.00000000E+00  0.00000000E+00
  0.00000000E+00  0.00000000E+00  0.00000000E+00
  0.00000000E+00  0.00000000E+00  0.00000000E+00
  0.00000000E+00  0.00000000E+00  0.00000000E+00
  0.00000000E+00  0.00000000E+00  0.00000000E+00
  0.00000000E+00  0.00000000E+00  0.00000000E+00
  0.00000000E+00  0.00000000E+00  0.00000000E+00
  0.00000000E+00  0.00000000E+00  0.00000000E+00
  0.00000000E+00  0.00000000E+00  0.00000000E+00
  0.00000000E+00  0.00000000E+00  0.00000000E+00
  0.00000000E+00  0.00000000E+00  0.00000000E+00
  0.00000000E+00  0.00000000E+00  0.00000000E+00
  0.00000000E+00  0.00000000E+00  0.00000000E+00
  0.00000000E+00  0.00000000E+00  0.00000000E+00
  0.00000000E+00  0.00000000E+00  0.00000000E+00
  0.00000000E+00  0.00000000E+00  0.00000000E+00
  0.00000000E+00  0.00000000E+00  0.00000000E+00
  0.00000000E+00  0.00000000E+00  0.00000000E+00
  0.00000000E+00  0.00000000E+00  0.00000000E+00
  0.00000000E+00  0.00000000E+00  0.00000000E+00
  0.00000000E+00  0.00000000E+00  0.00000000E+00
  0.00000000E+00  0.00000000E+00  0.00000000E+00
  0.00000000E+00  0.00000000E+00  0.00000000E+00
  0.00000000E+00  0.00000000E+00  0.00000000E+00
  0.00000000E+00  0.00000000E+00  0.00000000E+00
  0.00000000E+00  0.00000000E+00  0.00000000E+00
  0.00000000E+00  0.00000000E+00  0.00000000E+00
  0.00000000E+00  0.00000000E+00  0.00000000E+00
