Cu Ag Cu Ag Cu Ag Cu Ag Cu Ag Cu Ag Cu A
    1.000000000000000     
     5.4447222151364167    0.0000000000000000    0.0000000000000000
     2.7223611075682084    4.7152677548576172    0.0000000000000000
     0.0000000000000000    0.0000000000000000   30.6683956091401768
   Cu   Ag   Cu   Ag   Cu   Ag   Cu   Ag   Cu   Ag   Cu   Ag   Cu   Ag   Cu   Ag
     1     1     1     1     1     1     1     1     1     1     1     1     1     1     1     1
Selective dynamics
Direct
     0.0000000000000000    0.0000000000000000    0.3912822878945619   F   F   F
     0.5000000000000000    0.0000000000000000    0.3912822878945619   F   F   F
     0.0000000000000000    0.5000000000000000    0.3912822878945619   F   F   F
     0.5000000000000000    0.5000000000000000    0.3912822878945619   F   F   F
     0.1666666666666643    0.1666666666666643    0.4637607626315230   F   F   F
     0.6666666666666643    0.1666666666666643    0.4637607626315230   F   F   F
     0.1666666666666643    0.6666666666666643    0.4637607626315230   F   F   F
     0.6666666666666643    0.6666666666666643    0.4637607626315230   F   F   F
     0.8216233889801140    0.3391787335470826    0.5381563148090145   T   T   T
     0.3170221278928437    0.3415079810990157    0.5385793910259398   T   T   T
     0.8216271667011565    0.8391768637239679    0.5381563704620144   T   T   T
     0.3170220867064770    0.8414978548271128    0.5385794148055157   T   T   T
     0.9496636056513805    0.0251425824731520    0.6077717126856005   T   T   T
     0.4572638703287728    0.0214184643445068    0.6216325434199277   T   T   T
     0.9496635959911511    0.5251418588205244    0.6077717267012079   T   T   T
     0.4572613279664718    0.5214198802582621    0.6216344291677565   T   T   T
 
  0.00000000E+00  0.00000000E+00  0.00000000E+00
  0.00000000E+00  0.00000000E+00  0.00000000E+00
  0.00000000E+00  0.00000000E+00  0.00000000E+00
  0.00000000E+00  0.00000000E+00  0.00000000E+00
  0.00000000E+00  0.00000000E+00  0.00000000E+00
  0.00000000E+00  0.00000000E+00  0.00000000E+00
  0.00000000E+00  0.00000000E+00  0.00000000E+00
  0.00000000E+00  0.00000000E+00  0.00000000E+00
  0.00000000E+00  0.00000000E+00  0.00000000E+00
  0.00000000E+00  0.00000000E+00  0.00000000E+00
  0.00000000E+00  0.00000000E+00  0.00000000E+00
  0.00000000E+00  0.00000000E+00  0.00000000E+00
  0.00000000E+00  0.00000000E+00  0.00000000E+00
  0.00000000E+00  0.00000000E+00  0.00000000E+00
  0.00000000E+00  0.00000000E+00  0.00000000E+00
  0.00000000E+00  0.00000000E+00  0.00000000E+00
