Cu C  O  C  O  C  O  C  O  C  O  C  O  C
    1.000000000000000     
     7.6685730419681093    0.0000000000000000    0.0000000000000000
     0.0000000000000000    7.6685730419681093    0.0000000000000000
     0.0000000000000000    0.0000000000000000   29.4224999999999994
   Cu   C    O    C    O    C    O    C    O    C    O    C    O    C    O    C    O 
    36     1     1     1     1     1     1     1     1     1     1     1     1     1     1     1     1
Selective dynamics
Direct
     0.1666666666666643    0.1666666666666643    0.4078511343359708   F   F   F
     0.5000000000000000    0.1666666666666643    0.4078511343359708   F   F   F
     0.8333333333333357    0.1666666666666643    0.4078511343359708   F   F   F
     0.1666666666666643    0.5000000000000000    0.4078511343359708   F   F   F
     0.5000000000000000    0.5000000000000000    0.4078511343359708   F   F   F
     0.8333333333333357    0.5000000000000000    0.4078511343359708   F   F   F
     0.1666666666666643    0.8333333333333357    0.4078511343359708   F   F   F
     0.5000000000000000    0.8333333333333357    0.4078511343359708   F   F   F
     0.8333333333333357    0.8333333333333357    0.4078511343359708   F   F   F
     0.0000000000000000    0.0000000000000000    0.4692837114453212   F   F   F
     0.3333333333333357    0.0000000000000000    0.4692837114453212   F   F   F
     0.6666666666666643    0.0000000000000000    0.4692837114453212   F   F   F
     0.0000000000000000    0.3333333333333357    0.4692837114453212   F   F   F
     0.3333333333333357    0.3333333333333357    0.4692837114453212   F   F   F
     0.6666666666666643    0.3333333333333357    0.4692837114453212   F   F   F
     0.0000000000000000    0.6666666666666643    0.4692837114453212   F   F   F
     0.3333333333333357    0.6666666666666643    0.4692837114453212   F   F   F
     0.6666666666666643    0.6666666666666643    0.4692837114453212   F   F   F
     0.1604165665087409    0.1600052184907590    0.5322002463837754   T   T   T
     0.4854320663148296    0.1648022455857558    0.5356604336690982   T   T   T
     0.8201737440688120    0.1733345772471681    0.5326447031834193   T   T   T
     0.1653385976781634    0.4850801474855619    0.5356951365089606   T   T   T
     0.4985244839682334    0.4985003252937409    0.5302804627552702   T   T   T
     0.8276126377985921    0.5109363992571505    0.5359451361135218   T   T   T
     0.1738826129770428    0.8197797710069268    0.5328474306356291   T   T   T
     0.5111392159972102    0.8274430889141425    0.5360137860711757   T   T   T
     0.8419222393412699    0.8415209266874292    0.5353333017904620   T   T   T
     0.0040733795218739    0.0028163906269524    0.5977417322677625   T   T   T
     0.3344594587521834    0.9580264889764970    0.5983990041451702   T   T   T
     0.6634758171307129    0.0251361073464584    0.5976630520883542   T   T   T
     0.9587089114331129    0.3331120316971745    0.5978245537143434   T   T   T
     0.2929969722616704    0.2922070737467082    0.6054383153983756   T   T   T
     0.6207154507431949    0.3663716619235244    0.5978013223871878   T   T   T
     0.0266807673771178    0.6609446201947489    0.5981714636619549   T   T   T
     0.3690756648272943    0.6199792335065865    0.5986009175009201   T   T   T
     0.6988792864434761    0.6964931515796279    0.6045216539565937   T   T   T
     0.2589820334609549    0.2547629432412082    0.6695940988575763   T   T   T
     0.2459304763239877    0.2412544392784652    0.7087800374117330   T   T   T
     0.2640008791515182    0.5949550841882421    0.6570210745736245   T   T   T
     0.2484022597071237    0.5883310919388379    0.6962744955210892   T   T   T
     0.1803522123353767    0.9270467832731911    0.6493085143987360   T   T   T
     0.1608401873709439    0.9103555924629012    0.6887463413289188   T   T   T
     0.5985121781636586    0.2734390878248685    0.6576999041418143   T   T   T
     0.5939354624042926    0.2570504379885569    0.6969303487664770   T   T   T
     0.5908898577891371    0.6013030574263883    0.6571472150056281   T   T   T
     0.5787264515531987    0.5874133386266210    0.6969139078251786   T   T   T
     0.6210719573281491    0.9308381344711513    0.6570405096899627   T   T   T
     0.6028362278919828    0.9219020870868928    0.6963012920552909   T   T   T
     0.9293793901535931    0.1806033034111689    0.6492607049557726   T   T   T
     0.9126846348995641    0.1619410466608593    0.6886030792791574   T   T   T
     0.9223706156912491    0.6222038757662307    0.6566613015506622   T   T   T
     0.9150606380825287    0.6021697493299846    0.6958826649153793   T   T   T
 
  0.00000000E+00  0.00000000E+00  0.00000000E+00
  0.00000000E+00  0.00000000E+00  0.00000000E+00
  0.00000000E+00  0.00000000E+00  0.00000000E+00
  0.00000000E+00  0.00000000E+00  0.00000000E+00
  0.00000000E+00  0.00000000E+00  0.00000000E+00
  0.00000000E+00  0.00000000E+00  0.00000000E+00
  0.00000000E+00  0.00000000E+00  0.00000000E+00
  0.00000000E+00  0.00000000E+00  0.00000000E+00
  0.00000000E+00  0.00000000E+00  0.00000000E+00
  0.00000000E+00  0.00000000E+00  0.00000000E+00
  0.00000000E+00  0.00000000E+00  0.00000000E+00
  0.00000000E+00  0.00000000E+00  0.00000000E+00
  0.00000000E+00  0.00000000E+00  0.00000000E+00
  0.00000000E+00  0.00000000E+00  0.00000000E+00
  0.00000000E+00  0.00000000E+00  0.00000000E+00
  0.00000000E+00  0.00000000E+00  0.00000000E+00
  0.00000000E+00  0.00000000E+00  0.00000000E+00
  0.00000000E+00  0.00000000E+00  0.00000000E+00
  0.00000000E+00  0.00000000E+00  0.00000000E+00
  0.00000000E+00  0.00000000E+00  0.00000000E+00
  0.00000000E+00  0.00000000E+00  0.00000000E+00
  0.00000000E+00  0.00000000E+00  0.00000000E+00
  0.00000000E+00  0.00000000E+00  0.00000000E+00
  0.00000000E+00  0.00000000E+00  0.00000000E+00
  0.00000000E+00  0.00000000E+00  0.00000000E+00
  0.00000000E+00  0.00000000E+00  0.00000000E+00
  0.00000000E+00  0.00000000E+00  0.00000000E+00
  0.00000000E+00  0.00000000E+00  0.00000000E+00
  0.00000000E+00  0.00000000E+00  0.00000000E+00
  0.00000000E+00  0.00000000E+00  0.00000000E+00
  0.00000000E+00  0.00000000E+00  0.00000000E+00
  0.00000000E+00  0.00000000E+00  0.00000000E+00
  0.00000000E+00  0.00000000E+00  0.00000000E+00
  0.00000000E+00  0.00000000E+00  0.00000000E+00
  0.00000000E+00  0.00000000E+00  0.00000000E+00
  0.00000000E+00  0.00000000E+00  0.00000000E+00
  0.00000000E+00  0.00000000E+00  0.00000000E+00
  0.00000000E+00  0.00000000E+00  0.00000000E+00
  0.00000000E+00  0.00000000E+00  0.00000000E+00
  0.00000000E+00  0.00000000E+00  0.00000000E+00
  0.00000000E+00  0.00000000E+00  0.00000000E+00
  0.00000000E+00  0.00000000E+00  0.00000000E+00
  0.00000000E+00  0.00000000E+00  0.00000000E+00
  0.00000000E+00  0.00000000E+00  0.00000000E+00
  0.00000000E+00  0.00000000E+00  0.00000000E+00
  0.00000000E+00  0.00000000E+00  0.00000000E+00
  0.00000000E+00  0.00000000E+00  0.00000000E+00
  0.00000000E+00  0.00000000E+00  0.00000000E+00
  0.00000000E+00  0.00000000E+00  0.00000000E+00
  0.00000000E+00  0.00000000E+00  0.00000000E+00
  0.00000000E+00  0.00000000E+00  0.00000000E+00
  0.00000000E+00  0.00000000E+00  0.00000000E+00
