Cu O  C  O  C  O  C  O                  
    1.000000000000000     
     7.6685730419681093    0.0000000000000000    0.0000000000000000
     0.0000000000000000    7.6685730419681093    0.0000000000000000
     0.0000000000000000    0.0000000000000000   29.4224999999999994
   Cu   O    C    O    C    O    C    O 
    36     1     2     1     1     1     1     1
Selective dynamics
Direct
     0.1666666666666643    0.1666666666666643    0.4078511343359708   F   F   F
     0.5000000000000000    0.1666666666666643    0.4078511343359708   F   F   F
     0.8333333333333357    0.1666666666666643    0.4078511343359708   F   F   F
     0.1666666666666643    0.5000000000000000    0.4078511343359708   F   F   F
     0.5000000000000000    0.5000000000000000    0.4078511343359708   F   F   F
     0.8333333333333357    0.5000000000000000    0.4078511343359708   F   F   F
     0.1666666666666643    0.8333333333333357    0.4078511343359708   F   F   F
     0.5000000000000000    0.8333333333333357    0.4078511343359708   F   F   F
     0.8333333333333357    0.8333333333333357    0.4078511343359708   F   F   F
     0.0000000000000000    0.0000000000000000    0.4692837114453212   F   F   F
     0.3333333333333357    0.0000000000000000    0.4692837114453212   F   F   F
     0.6666666666666643    0.0000000000000000    0.4692837114453212   F   F   F
     0.0000000000000000    0.3333333333333357    0.4692837114453212   F   F   F
     0.3333333333333357    0.3333333333333357    0.4692837114453212   F   F   F
     0.6666666666666643    0.3333333333333357    0.4692837114453212   F   F   F
     0.0000000000000000    0.6666666666666643    0.4692837114453212   F   F   F
     0.3333333333333357    0.6666666666666643    0.4692837114453212   F   F   F
     0.6666666666666643    0.6666666666666643    0.4692837114453212   F   F   F
     0.1563148513074993    0.1660076867336248    0.5346170909232461   T   T   T
     0.4877085536592759    0.1608467064271594    0.5342629941925865   T   T   T
     0.8277636740481112    0.1733919121954010    0.5345299502058642   T   T   T
     0.1746708233374189    0.4993371303093930    0.5347712522766097   T   T   T
     0.5045061383998642    0.4947617849560314    0.5341891835302464   T   T   T
     0.8437244791250823    0.5063788975660561    0.5336972207740228   T   T   T
     0.1663181614471193    0.8336815399476097    0.5304255835824262   T   T   T
     0.4978060134663406    0.8248612178916991    0.5337871870338554   T   T   T
     0.8345821038631387    0.8426581021000004    0.5338029157852858   T   T   T
     0.9613093987537866    0.0297628394617267    0.6029390510280324   T   T   T
     0.3165453579677500    0.9842113831190715    0.5968403264724673   T   T   T
     0.6439560908099812    0.9987251865896881    0.5947392589748219   T   T   T
     0.9904206653658361    0.3568918524605804    0.5985029710699937   T   T   T
     0.3302452168024243    0.3163557700752080    0.5984246543755056   T   T   T
     0.6617359784774409    0.3335258074203158    0.5960200263907438   T   T   T
     0.0190513674237740    0.6860635080485142    0.5970201574916286   T   T   T
     0.3762714121698221    0.6361452669341776    0.6034887403527561   T   T   T
     0.6914252240483746    0.6666199522666747    0.5946479493427544   T   T   T
     0.1200047622624623    0.3175532427425602    0.6556485313053946   T   T   T
     0.1079042434690776    0.8908140370739446    0.6405644239664997   T   T   T
     0.2313293945775710    0.7745862903065893    0.6410303569012484   T   T   T
     0.0869719594946980    0.4205863479288269    0.6906135704818430   T   T   T
     0.0755379465644623    0.8236468917384399    0.8067948932113160   T   T   T
     0.1891764460908112    0.8366114025045336    0.8320628189080359   T   T   T
     0.5804510793952016    0.1638793812900782    0.7435665186367270   T   T   T
     0.5577468804678656    0.1625150703770518    0.7819771730001088   T   T   T
 
  0.00000000E+00  0.00000000E+00  0.00000000E+00
  0.00000000E+00  0.00000000E+00  0.00000000E+00
  0.00000000E+00  0.00000000E+00  0.00000000E+00
  0.00000000E+00  0.00000000E+00  0.00000000E+00
  0.00000000E+00  0.00000000E+00  0.00000000E+00
  0.00000000E+00  0.00000000E+00  0.00000000E+00
  0.00000000E+00  0.00000000E+00  0.00000000E+00
  0.00000000E+00  0.00000000E+00  0.00000000E+00
  0.00000000E+00  0.00000000E+00  0.00000000E+00
  0.00000000E+00  0.00000000E+00  0.00000000E+00
  0.00000000E+00  0.00000000E+00  0.00000000E+00
  0.00000000E+00  0.00000000E+00  0.00000000E+00
  0.00000000E+00  0.00000000E+00  0.00000000E+00
  0.00000000E+00  0.00000000E+00  0.00000000E+00
  0.00000000E+00  0.00000000E+00  0.00000000E+00
  0.00000000E+00  0.00000000E+00  0.00000000E+00
  0.00000000E+00  0.00000000E+00  0.00000000E+00
  0.00000000E+00  0.00000000E+00  0.00000000E+00
  0.00000000E+00  0.00000000E+00  0.00000000E+00
  0.00000000E+00  0.00000000E+00  0.00000000E+00
  0.00000000E+00  0.00000000E+00  0.00000000E+00
  0.00000000E+00  0.00000000E+00  0.00000000E+00
  0.00000000E+00  0.00000000E+00  0.00000000E+00
  0.00000000E+00  0.00000000E+00  0.00000000E+00
  0.00000000E+00  0.00000000E+00  0.00000000E+00
  0.00000000E+00  0.00000000E+00  0.00000000E+00
  0.00000000E+00  0.00000000E+00  0.00000000E+00
  0.00000000E+00  0.00000000E+00  0.00000000E+00
  0.00000000E+00  0.00000000E+00  0.00000000E+00
  0.00000000E+00  0.00000000E+00  0.00000000E+00
  0.00000000E+00  0.00000000E+00  0.00000000E+00
  0.00000000E+00  0.00000000E+00  0.00000000E+00
  0.00000000E+00  0.00000000E+00  0.00000000E+00
  0.00000000E+00  0.00000000E+00  0.00000000E+00
  0.00000000E+00  0.00000000E+00  0.00000000E+00
  0.00000000E+00  0.00000000E+00  0.00000000E+00
  0.00000000E+00  0.00000000E+00  0.00000000E+00
  0.00000000E+00  0.00000000E+00  0.00000000E+00
  0.00000000E+00  0.00000000E+00  0.00000000E+00
  0.00000000E+00  0.00000000E+00  0.00000000E+00
  0.00000000E+00  0.00000000E+00  0.00000000E+00
  0.00000000E+00  0.00000000E+00  0.00000000E+00
  0.00000000E+00  0.00000000E+00  0.00000000E+00
  0.00000000E+00  0.00000000E+00  0.00000000E+00
