SYSTEM = Cu(100) coverage-dependent binding (RPBE)

# Electronic
ENCUT  = 450
EDIFF  = 1E-6
ISMEAR = 0
SIGMA  = 0.1
ALGO   = Normal
NELM   = 200
PREC   = Normal

# Functional: RPBE to match CatHub
GGA    = RP

# Ionic relaxation
IBRION = 2
NSW    = 300
ISIF   = 2
EDIFFG = -0.03

# Non-magnetic
ISPIN  = 1

# Performance
LREAL  = Auto

LORBIT = 11

# Output
LWAVE  = .FALSE.
LCHARG = .FALSE.
