Cu C  O  C  O  C  O  C  O               
    1.000000000000000     
     7.6685730419681093    0.0000000000000000    0.0000000000000000
     0.0000000000000000    7.6685730419681093    0.0000000000000000
     0.0000000000000000    0.0000000000000000   29.4224999999999994
   Cu   C    O    C    O    C    O    C    O 
    36     1     1     1     1     1     1     1     1
Selective dynamics
Direct
     0.1666666666666643    0.1666666666666643    0.4078511343359708   F   F   F
     0.5000000000000000    0.1666666666666643    0.4078511343359708   F   F   F
     0.8333333333333357    0.1666666666666643    0.4078511343359708   F   F   F
     0.1666666666666643    0.5000000000000000    0.4078511343359708   F   F   F
     0.5000000000000000    0.5000000000000000    0.4078511343359708   F   F   F
     0.8333333333333357    0.5000000000000000    0.4078511343359708   F   F   F
     0.1666666666666643    0.8333333333333357    0.4078511343359708   F   F   F
     0.5000000000000000    0.8333333333333357    0.4078511343359708   F   F   F
     0.8333333333333357    0.8333333333333357    0.4078511343359708   F   F   F
     0.0000000000000000    0.0000000000000000    0.4692837114453212   F   F   F
     0.3333333333333357    0.0000000000000000    0.4692837114453212   F   F   F
     0.6666666666666643    0.0000000000000000    0.4692837114453212   F   F   F
     0.0000000000000000    0.3333333333333357    0.4692837114453212   F   F   F
     0.3333333333333357    0.3333333333333357    0.4692837114453212   F   F   F
     0.6666666666666643    0.3333333333333357    0.4692837114453212   F   F   F
     0.0000000000000000    0.6666666666666643    0.4692837114453212   F   F   F
     0.3333333333333357    0.6666666666666643    0.4692837114453212   F   F   F
     0.6666666666666643    0.6666666666666643    0.4692837114453212   F   F   F
     0.1661349207709918    0.1717945898338940    0.5340851328570623   T   T   T
     0.4935022818179389    0.1714699162311851    0.5336400731056212   T   T   T
     0.8306180097313970    0.1659140815813374    0.5321462151328229   T   T   T
     0.1660881987842967    0.5025483657006518    0.5346403183622334   T   T   T
     0.4966507324081106    0.5025106428617014    0.5354063286057292   T   T   T
     0.8312567145173233    0.4925618892804306    0.5344596403085571   T   T   T
     0.1642149679401738    0.8385390295709116    0.5327101015594095   T   T   T
     0.5017238217947658    0.8382864034030917    0.5326263844598662   T   T   T
     0.8326982133903745    0.8359518753867605    0.5344056123826163   T   T   T
     0.9953622733055016    0.9985363921525300    0.5980999439716661   T   T   T
     0.3293964566925691    0.0078957646581735    0.5976060196757941   T   T   T
     0.6616534714606667    0.0009571967045416    0.5977366630881391   T   T   T
     0.9916337709298283    0.3293084531263406    0.5996040146936762   T   T   T
     0.3259517540633628    0.3550682342372605    0.6017573135407770   T   T   T
     0.6591526095351556    0.3319259220653412    0.5995594697819369   T   T   T
     0.9974796983081448    0.6632931770892845    0.5950092389685101   T   T   T
     0.3354787849619282    0.6857287570149164    0.5984587700612629   T   T   T
     0.6693276061400756    0.6652868104699020    0.5956552894322257   T   T   T
     0.0020206340272734    0.1573660708057776    0.6526578949005234   T   T   T
     0.0088274594730358    0.1505851751235476    0.6925386928834129   T   T   T
     0.3100614590999478    0.4064782022075125    0.6649671411134281   T   T   T
     0.2994317257179205    0.4418644946557838    0.7032065076751417   T   T   T
     0.3204166252742175    0.8428882545364708    0.6518800312319369   T   T   T
     0.3138115300719120    0.8535413653586724    0.6916647131740259   T   T   T
     0.6303153612295795    0.1637630868394566    0.6516521593801091   T   T   T
     0.6091343525693127    0.1538694309459992    0.6911773226074220   T   T   T
 
  0.00000000E+00  0.00000000E+00  0.00000000E+00
  0.00000000E+00  0.00000000E+00  0.00000000E+00
  0.00000000E+00  0.00000000E+00  0.00000000E+00
  0.00000000E+00  0.00000000E+00  0.00000000E+00
  0.00000000E+00  0.00000000E+00  0.00000000E+00
  0.00000000E+00  0.00000000E+00  0.00000000E+00
  0.00000000E+00  0.00000000E+00  0.00000000E+00
  0.00000000E+00  0.00000000E+00  0.00000000E+00
  0.00000000E+00  0.00000000E+00  0.00000000E+00
  0.00000000E+00  0.00000000E+00  0.00000000E+00
  0.00000000E+00  0.00000000E+00  0.00000000E+00
  0.00000000E+00  0.00000000E+00  0.00000000E+00
  0.00000000E+00  0.00000000E+00  0.00000000E+00
  0.00000000E+00  0.00000000E+00  0.00000000E+00
  0.00000000E+00  0.00000000E+00  0.00000000E+00
  0.00000000E+00  0.00000000E+00  0.00000000E+00
  0.00000000E+00  0.00000000E+00  0.00000000E+00
  0.00000000E+00  0.00000000E+00  0.00000000E+00
  0.00000000E+00  0.00000000E+00  0.00000000E+00
  0.00000000E+00  0.00000000E+00  0.00000000E+00
  0.00000000E+00  0.00000000E+00  0.00000000E+00
  0.00000000E+00  0.00000000E+00  0.00000000E+00
  0.00000000E+00  0.00000000E+00  0.00000000E+00
  0.00000000E+00  0.00000000E+00  0.00000000E+00
  0.00000000E+00  0.00000000E+00  0.00000000E+00
  0.00000000E+00  0.00000000E+00  0.00000000E+00
  0.00000000E+00  0.00000000E+00  0.00000000E+00
  0.00000000E+00  0.00000000E+00  0.00000000E+00
  0.00000000E+00  0.00000000E+00  0.00000000E+00
  0.00000000E+00  0.00000000E+00  0.00000000E+00
  0.00000000E+00  0.00000000E+00  0.00000000E+00
  0.00000000E+00  0.00000000E+00  0.00000000E+00
  0.00000000E+00  0.00000000E+00  0.00000000E+00
  0.00000000E+00  0.00000000E+00  0.00000000E+00
  0.00000000E+00  0.00000000E+00  0.00000000E+00
  0.00000000E+00  0.00000000E+00  0.00000000E+00
  0.00000000E+00  0.00000000E+00  0.00000000E+00
  0.00000000E+00  0.00000000E+00  0.00000000E+00
  0.00000000E+00  0.00000000E+00  0.00000000E+00
  0.00000000E+00  0.00000000E+00  0.00000000E+00
  0.00000000E+00  0.00000000E+00  0.00000000E+00
  0.00000000E+00  0.00000000E+00  0.00000000E+00
  0.00000000E+00  0.00000000E+00  0.00000000E+00
  0.00000000E+00  0.00000000E+00  0.00000000E+00
