CO molecule in vacuum                   
    1.000000000000000     
    15.0000000000000000    0.0000000000000000    0.0000000000000000
     0.0000000000000000   15.0000000000000000    0.0000000000000000
     0.0000000000000000    0.0000000000000000   15.0000000000000000
   C    O 
     1     1
Direct
     0.5000000000000000    0.5000000000000000    0.4998229234808563
     0.5000000000000000    0.5000000000000000    0.5763770765191436
 
  0.00000000E+00  0.00000000E+00  0.00000000E+00
  0.00000000E+00  0.00000000E+00  0.00000000E+00
