SYSTEM = CO molecule in vacuum

ENCUT  = 450
EDIFF  = 1E-6
ISMEAR = 0
SIGMA  = 0.01
ALGO   = Normal
PREC   = Normal
GGA    = RP

IBRION = 2
NSW    = 50
ISIF   = 2
EDIFFG = -0.01

ISPIN  = 1
LREAL  = .FALSE.

LWAVE  = .FALSE.
LCHARG = .FALSE.
