CO molecule in vacuum
 1.0000000000000000
    15.0000000000000000    0.0000000000000000    0.0000000000000000
     0.0000000000000000   15.0000000000000000    0.0000000000000000
     0.0000000000000000    0.0000000000000000   15.0000000000000000
 C   O
   1   1
Cartesian
  7.500  7.500  7.500
  7.500  7.500  8.643
