Cu Ag Cu Ag Cu Ag Cu Ag Cu Ag Cu Ag Cu A
    1.000000000000000     
     5.4447222151364167    0.0000000000000000    0.0000000000000000
     2.7223611075682084    4.7152677548576172    0.0000000000000000
     0.0000000000000000    0.0000000000000000   30.6683956091401768
   Cu   Ag   Cu   Ag   Cu   Ag   Cu   Ag   Cu   Ag   Cu   Ag   Cu   Ag   Cu   Ag   C    O 
     1     1     1     1     1     1     1     1     1     1     1     1     1     1     1     1     1     1
Selective dynamics
Direct
     0.0000000000000000    0.0000000000000000    0.3912822878945619   F   F   F
     0.5000000000000000    0.0000000000000000    0.3912822878945619   F   F   F
     0.0000000000000000    0.5000000000000000    0.3912822878945619   F   F   F
     0.5000000000000000    0.5000000000000000    0.3912822878945619   F   F   F
     0.1666666666666643    0.1666666666666643    0.4637607626315230   F   F   F
     0.6666666666666643    0.1666666666666643    0.4637607626315230   F   F   F
     0.1666666666666643    0.6666666666666643    0.4637607626315230   F   F   F
     0.6666666666666643    0.6666666666666643    0.4637607626315230   F   F   F
     0.8209543177948320    0.3395143413001772    0.5383805306497065   T   T   T
     0.3122976516542487    0.3434748879539397    0.5381706569685814   T   T   T
     0.8190943446991525    0.8404397241882892    0.5428618737309608   T   T   T
     0.3122937564511807    0.8441730550587145    0.5381753980459169   T   T   T
     0.9776789061752779    0.0186891060651615    0.6118369833861242   T   T   T
     0.4988866137839544    0.0004408487542831    0.6196503041274887   T   T   T
     0.9775965141823362    0.5036878466837722    0.6118320688041743   T   T   T
     0.4672339539707511    0.5164980977718665    0.6184070637240817   T   T   T
     0.0079062881023966    0.2460768965504554    0.6617144093075318   T   T   T
     0.0116116098739040    0.2443429667626771    0.7003225624600331   T   T   T
 
  0.00000000E+00  0.00000000E+00  0.00000000E+00
  0.00000000E+00  0.00000000E+00  0.00000000E+00
  0.00000000E+00  0.00000000E+00  0.00000000E+00
  0.00000000E+00  0.00000000E+00  0.00000000E+00
  0.00000000E+00  0.00000000E+00  0.00000000E+00
  0.00000000E+00  0.00000000E+00  0.00000000E+00
  0.00000000E+00  0.00000000E+00  0.00000000E+00
  0.00000000E+00  0.00000000E+00  0.00000000E+00
  0.00000000E+00  0.00000000E+00  0.00000000E+00
  0.00000000E+00  0.00000000E+00  0.00000000E+00
  0.00000000E+00  0.00000000E+00  0.00000000E+00
  0.00000000E+00  0.00000000E+00  0.00000000E+00
  0.00000000E+00  0.00000000E+00  0.00000000E+00
  0.00000000E+00  0.00000000E+00  0.00000000E+00
  0.00000000E+00  0.00000000E+00  0.00000000E+00
  0.00000000E+00  0.00000000E+00  0.00000000E+00
  0.00000000E+00  0.00000000E+00  0.00000000E+00
  0.00000000E+00  0.00000000E+00  0.00000000E+00
