Cu Ag Cu Ag Cu Ag Cu Ag C  O            
    1.000000000000000     
     5.2785521215575777    0.0000000000000000    0.0000000000000000
     2.6392760607787888    4.5713602324691056    0.0000000000000000
     0.0000000000000000    0.0000000000000000   30.4648796392508352
   Cu   Ag   Cu   Ag   Cu   Ag   Cu   Ag
     3     1     3     1     3     1     3     1
Selective dynamics
Direct
     0.0000000000000000    0.0000000000000000    0.3938961893858703   F   F   F
     0.5000000000000000    0.0000000000000000    0.3938961893858703   F   F   F
     0.0000000000000000    0.5000000000000000    0.3938961893858703   F   F   F
     0.5000000000000000    0.5000000000000000    0.3938961893858703   F   F   F
     0.1666666666666643    0.1666666666666643    0.4646320631286258   F   F   F
     0.6666666666666643    0.1666666666666643    0.4646320631286258   F   F   F
     0.1666666666666643    0.6666666666666643    0.4646320631286258   F   F   F
     0.6666666666666643    0.6666666666666643    0.4646320631286258   F   F   F
     0.8363703070554799    0.3245961054825188    0.5368659272059246   T   T   T
     0.3295656664216758    0.3291505170249865    0.5336524176090022   T   T   T
     0.8297841715176628    0.8420514076818569    0.5366436729140724   T   T   T
     0.3343227980196742    0.8229646242825175    0.5407826453338819   T   T   T
     0.9826174477569696    0.0225499259926182    0.6101782480985622   T   T   T
     0.4971404445083417    0.0250292357394509    0.6084944346516695   T   T   T
     0.9958972701339497    0.5137194498326713    0.6046614774795859   T   T   T
     0.4917538482850943    0.5225409030097933    0.6246340670048049   T   T   T
 
  0.00000000E+00  0.00000000E+00  0.00000000E+00
  0.00000000E+00  0.00000000E+00  0.00000000E+00
  0.00000000E+00  0.00000000E+00  0.00000000E+00
  0.00000000E+00  0.00000000E+00  0.00000000E+00
  0.00000000E+00  0.00000000E+00  0.00000000E+00
  0.00000000E+00  0.00000000E+00  0.00000000E+00
  0.00000000E+00  0.00000000E+00  0.00000000E+00
  0.00000000E+00  0.00000000E+00  0.00000000E+00
  0.00000000E+00  0.00000000E+00  0.00000000E+00
  0.00000000E+00  0.00000000E+00  0.00000000E+00
  0.00000000E+00  0.00000000E+00  0.00000000E+00
  0.00000000E+00  0.00000000E+00  0.00000000E+00
  0.00000000E+00  0.00000000E+00  0.00000000E+00
  0.00000000E+00  0.00000000E+00  0.00000000E+00
  0.00000000E+00  0.00000000E+00  0.00000000E+00
  0.00000000E+00  0.00000000E+00  0.00000000E+00
